O  Pb Ti
 1.0000000000000000
    46.8479999999999990    0.0000000000000000    0.0000000000000000
     0.0000000000000000   46.8479999999999990    0.0000000000000000
     0.0000000000000000    0.0000000000000000   25.3684941226440230
 O   Pb  Ti 
 2304 864 720
Direct
  0.4553077191913392  0.9583333333333334  0.9059430579605362
  0.5416666666666666  0.9136410525246726  0.5032258879697141
  0.5000000000000000  0.9553077191913393  0.5032258879697141
  0.5416666666666666  0.9553077191913393  0.5850596771557641
  0.5416666666666666  0.9136410525246726  0.6668934663418142
  0.5000000000000000  0.9553077191913393  0.6668934663418142
  0.5416666666666666  0.9553077191913393  0.7487272555278642
  0.5416666666666666  0.9136410525246726  0.8305610447139143
  0.5000000000000000  0.9553077191913393  0.8305610447139143
  0.5416666666666666  0.9553077191913393  0.4213920987836641
  0.5416666666666666  0.9553077191913393  0.9123948338999643
  0.6238050916543891  0.0000000000000000  0.1787275294970447
  0.5821384249877225  0.0416666666666667  0.1787275294970447
  0.6238050916543891  0.0416666666666667  0.2605613186830947
  0.6238050916543891  0.0000000000000000  0.3423951078691447
  0.5821384249877225  0.0416666666666667  0.3423951078691447
  0.6238050916543891  0.0416666666666667  0.4242288970551948
  0.6238050916543891  0.0000000000000000  0.5060626862412448
  0.5821384249877225  0.0416666666666667  0.5060626862412448
  0.6238050916543891  0.0416666666666667  0.0968937403109946
  0.5000000000000000  0.9553077191913393  0.3395583095976141
  0.5416666666666666  0.9136410525246726  0.3395583095976141
  0.5416666666666666  0.9553077191913393  0.2577245204115640
  0.5416666666666666  0.8719743858580058  0.0940569420394640
  0.5416666666666666  0.8303077191913392  0.1758907312255140
  0.5000000000000000  0.8719743858580058  0.1758907312255140
  0.5416666666666666  0.8719743858580058  0.2577245204115640
  0.5416666666666666  0.8303077191913392  0.3395583095976141
  0.5000000000000000  0.8719743858580058  0.3395583095976141
  0.5416666666666666  0.8719743858580058  0.4213920987836641
  0.5416666666666666  0.8303077191913392  0.5032258879697141
  0.5000000000000000  0.8719743858580058  0.5032258879697141
  0.5416666666666666  0.8719743858580058  0.5850596771557641
  0.5416666666666666  0.8303077191913392  0.6668934663418142
  0.5000000000000000  0.8719743858580058  0.6668934663418142
  0.5416666666666666  0.8719743858580058  0.7487272555278642
  0.5416666666666666  0.8303077191913392  0.8305610447139143
  0.5000000000000000  0.8719743858580058  0.8305610447139143
  0.5416666666666666  0.8719743858580058  0.9123948338999643
  0.5416666666666666  0.9553077191913393  0.0940569420394640
  0.5416666666666666  0.9136410525246726  0.1758907312255140
  0.5000000000000000  0.9553077191913393  0.1758907312255140
  0.6238050916543891  0.0416666666666667  0.5878964754272947
  0.5416666666666666  0.7886410525246724  0.9123948338999643
  0.6238050916543891  0.0000000000000000  0.6697302646133447
  0.6238050916543891  0.0416666666666667  0.7515640537993949
  0.6238050916543891  0.1666666666666667  0.3423951078691447
  0.5821384249877225  0.2083333333333333  0.3423951078691447
  0.6238050916543891  0.2083333333333333  0.4242288970551948
  0.6238050916543891  0.1666666666666667  0.5060626862412448
  0.5821384249877225  0.2083333333333333  0.5060626862412448
  0.6238050916543891  0.2083333333333333  0.5878964754272947
  0.6238050916543891  0.1666666666666667  0.6697302646133447
  0.5821384249877225  0.2083333333333333  0.6697302646133447
  0.6238050916543891  0.2083333333333333  0.2605613186830947
  0.6238050916543891  0.2083333333333333  0.7515640537993949
  0.5821384249877225  0.2083333333333333  0.8333978429854449
  0.6238050916543891  0.2083333333333333  0.9152316321714951
  0.6238050916543891  0.2916666666666666  0.0968937403109946
  0.6238050916543891  0.2500000000000000  0.1787275294970447
  0.5821384249877225  0.2916666666666666  0.1787275294970447
  0.6238050916543891  0.2916666666666666  0.2605613186830947
  0.6238050916543891  0.2500000000000000  0.3423951078691447
  0.5821384249877225  0.2916666666666666  0.3423951078691447
  0.6238050916543891  0.1666666666666667  0.8333978429854449
  0.5821384249877225  0.2083333333333333  0.1787275294970447
  0.6238050916543891  0.1666666666666667  0.1787275294970447
  0.6238050916543891  0.2083333333333333  0.0968937403109946
  0.6238050916543891  0.0000000000000000  0.8333978429854449
  0.5821384249877225  0.0416666666666667  0.8333978429854449
  0.6238050916543891  0.0416666666666667  0.9152316321714951
  0.6238050916543891  0.1250000000000000  0.0968937403109946
  0.6238050916543891  0.0833333333333333  0.1787275294970447
  0.5821384249877225  0.1250000000000000  0.1787275294970447
  0.6238050916543891  0.1250000000000000  0.2605613186830947
  0.6238050916543891  0.0833333333333333  0.3423951078691447
  0.5821384249877225  0.1250000000000000  0.3423951078691447
  0.6238050916543891  0.1250000000000000  0.4242288970551948
  0.6238050916543891  0.0833333333333333  0.5060626862412448
  0.5821384249877225  0.1250000000000000  0.5060626862412448
  0.6238050916543891  0.1250000000000000  0.5878964754272947
  0.6238050916543891  0.0833333333333333  0.6697302646133447
  0.5821384249877225  0.1250000000000000  0.6697302646133447
  0.6238050916543891  0.1250000000000000  0.7515640537993949
  0.6238050916543891  0.0833333333333333  0.8333978429854449
  0.5821384249877225  0.1250000000000000  0.8333978429854449
  0.6238050916543891  0.1250000000000000  0.9152316321714951
  0.5821384249877225  0.0416666666666667  0.6697302646133447
  0.6238050916543891  0.2916666666666666  0.4242288970551948
  0.5000000000000000  0.7886410525246724  0.8305610447139143
  0.5416666666666666  0.7886410525246724  0.7487272555278642
  0.5404717583210559  0.4166666666666666  0.8333978429854449
  0.4988050916543891  0.4583333333333334  0.8333978429854449
  0.5404717583210559  0.4583333333333334  0.9152316321714951
  0.5416666666666666  0.5386410525246725  0.0940569420394640
  0.5416666666666666  0.4969743858580058  0.1758907312255140
  0.5000000000000000  0.5386410525246725  0.1758907312255140
  0.5416666666666666  0.5386410525246725  0.2577245204115640
  0.5416666666666666  0.4969743858580058  0.3395583095976141
  0.5404717583210559  0.4583333333333334  0.7515640537993949
  0.5000000000000000  0.5386410525246725  0.3395583095976141
  0.5416666666666666  0.4969743858580058  0.5032258879697141
  0.5000000000000000  0.5386410525246725  0.5032258879697141
  0.5416666666666666  0.5386410525246725  0.5850596771557641
  0.5416666666666666  0.4969743858580058  0.6668934663418142
  0.5000000000000000  0.5386410525246725  0.6668934663418142
  0.5416666666666666  0.5386410525246725  0.7487272555278642
  0.5416666666666666  0.4969743858580058  0.8305610447139143
  0.5000000000000000  0.5386410525246725  0.8305610447139143
  0.5416666666666666  0.5386410525246725  0.4213920987836641
  0.4988050916543891  0.4583333333333334  0.6697302646133447
  0.5404717583210559  0.4166666666666666  0.6697302646133447
  0.5404717583210559  0.4583333333333334  0.5878964754272947
  0.5404717583210559  0.3749999999999999  0.4242288970551948
  0.5404717583210559  0.3333333333333333  0.5060626862412448
  0.4988050916543891  0.3749999999999999  0.5060626862412448
  0.5404717583210559  0.3749999999999999  0.5878964754272947
  0.5404717583210559  0.3333333333333333  0.6697302646133447
  0.4988050916543891  0.3749999999999999  0.6697302646133447
  0.5404717583210559  0.3749999999999999  0.7515640537993949
  0.5404717583210559  0.3333333333333333  0.8333978429854449
  0.4988050916543891  0.3749999999999999  0.8333978429854449
  0.5404717583210559  0.3749999999999999  0.9152316321714951
  0.5404717583210559  0.4583333333333334  0.0968937403109946
  0.5404717583210559  0.4166666666666666  0.1787275294970447
  0.4988050916543891  0.4583333333333334  0.1787275294970447
  0.5404717583210559  0.4583333333333334  0.2605613186830947
  0.5404717583210559  0.4166666666666666  0.3423951078691447
  0.4988050916543891  0.4583333333333334  0.3423951078691447
  0.5404717583210559  0.4583333333333334  0.4242288970551948
  0.5404717583210559  0.4166666666666666  0.5060626862412448
  0.4988050916543891  0.4583333333333334  0.5060626862412448
  0.5416666666666666  0.5386410525246725  0.9123948338999643
  0.5416666666666666  0.7469743858580058  0.8305610447139143
  0.5416666666666666  0.6219743858580058  0.0940569420394640
  0.5000000000000000  0.6219743858580058  0.1758907312255140
  0.5416666666666666  0.6636410525246724  0.6668934663418142
  0.5000000000000000  0.7053077191913392  0.6668934663418142
  0.5416666666666666  0.7053077191913392  0.7487272555278642
  0.5416666666666666  0.6636410525246724  0.8305610447139143
  0.5000000000000000  0.7053077191913392  0.8305610447139143
  0.5416666666666666  0.7053077191913392  0.9123948338999643
  0.5416666666666666  0.7886410525246724  0.0940569420394640
  0.5416666666666666  0.7469743858580058  0.1758907312255140
  0.5416666666666666  0.7053077191913392  0.5850596771557641
  0.5000000000000000  0.7886410525246724  0.1758907312255140
  0.5416666666666666  0.7469743858580058  0.3395583095976141
  0.5000000000000000  0.7886410525246724  0.3395583095976141
  0.5416666666666666  0.7886410525246724  0.4213920987836641
  0.5416666666666666  0.7469743858580058  0.5032258879697141
  0.5000000000000000  0.7886410525246724  0.5032258879697141
  0.5416666666666666  0.7886410525246724  0.5850596771557641
  0.5416666666666666  0.7469743858580058  0.6668934663418142
  0.5000000000000000  0.7886410525246724  0.6668934663418142
  0.5416666666666666  0.7886410525246724  0.2577245204115640
  0.5000000000000000  0.7053077191913392  0.5032258879697141
  0.5416666666666666  0.6636410525246724  0.5032258879697141
  0.5416666666666666  0.7053077191913392  0.4213920987836641
  0.5416666666666666  0.6219743858580058  0.2577245204115640
  0.5416666666666666  0.5803077191913392  0.3395583095976141
  0.5000000000000000  0.6219743858580058  0.3395583095976141
  0.5416666666666666  0.6219743858580058  0.4213920987836641
  0.5416666666666666  0.5803077191913392  0.5032258879697141
  0.5000000000000000  0.6219743858580058  0.5032258879697141
  0.5416666666666666  0.6219743858580058  0.5850596771557641
  0.5416666666666666  0.5803077191913392  0.6668934663418142
  0.5000000000000000  0.6219743858580058  0.6668934663418142
  0.5416666666666666  0.6219743858580058  0.7487272555278642
  0.5416666666666666  0.5803077191913392  0.8305610447139143
  0.5000000000000000  0.6219743858580058  0.8305610447139143
  0.5416666666666666  0.6219743858580058  0.9123948338999643
  0.5416666666666666  0.7053077191913392  0.0940569420394640
  0.5416666666666666  0.6636410525246724  0.1758907312255140
  0.5000000000000000  0.7053077191913392  0.1758907312255140
  0.5416666666666666  0.7053077191913392  0.2577245204115640
  0.5416666666666666  0.6636410525246724  0.3395583095976141
  0.5000000000000000  0.7053077191913392  0.3395583095976141
  0.5416666666666666  0.5803077191913392  0.1758907312255140
  0.6238050916543891  0.2500000000000000  0.5060626862412448
  0.5821384249877225  0.2916666666666666  0.5060626862412448
  0.6238050916543891  0.2916666666666666  0.5878964754272947
  0.6250000000000000  0.8719743858580058  0.7487272555278642
  0.6250000000000000  0.8303077191913392  0.8305610447139143
  0.5833333333333333  0.8719743858580058  0.8305610447139143
  0.6250000000000000  0.8719743858580058  0.9123948338999643
  0.6250000000000000  0.9553077191913393  0.0940569420394640
  0.6250000000000000  0.9136410525246726  0.1758907312255140
  0.5833333333333333  0.9553077191913393  0.1758907312255140
  0.6250000000000000  0.9553077191913393  0.2577245204115640
  0.5833333333333333  0.8719743858580058  0.6668934663418142
  0.6250000000000000  0.9136410525246726  0.3395583095976141
  0.6250000000000000  0.9553077191913393  0.4213920987836641
  0.6250000000000000  0.9136410525246726  0.5032258879697141
  0.5833333333333333  0.9553077191913393  0.5032258879697141
  0.6250000000000000  0.9553077191913393  0.5850596771557641
  0.6250000000000000  0.9136410525246726  0.6668934663418142
  0.5833333333333333  0.9553077191913393  0.6668934663418142
  0.6250000000000000  0.9553077191913393  0.7487272555278642
  0.6250000000000000  0.9136410525246726  0.8305610447139143
  0.5833333333333333  0.9553077191913393  0.3395583095976141
  0.6250000000000000  0.8303077191913392  0.6668934663418142
  0.6250000000000000  0.8719743858580058  0.5850596771557641
  0.5833333333333333  0.8719743858580058  0.5032258879697141
  0.5833333333333333  0.7886410525246724  0.3395583095976141
  0.6250000000000000  0.7886410525246724  0.4213920987836641
  0.6250000000000000  0.7469743858580058  0.5032258879697141
  0.5833333333333333  0.7886410525246724  0.5032258879697141
  0.6250000000000000  0.7886410525246724  0.5850596771557641
  0.6250000000000000  0.7469743858580058  0.6668934663418142
  0.5833333333333333  0.7886410525246724  0.6668934663418142
  0.6250000000000000  0.7886410525246724  0.7487272555278642
  0.6250000000000000  0.7469743858580058  0.8305610447139143
  0.5833333333333333  0.7886410525246724  0.8305610447139143
  0.6250000000000000  0.7886410525246724  0.9123948338999643
  0.6250000000000000  0.8719743858580058  0.0940569420394640
  0.6250000000000000  0.8303077191913392  0.1758907312255140
  0.5833333333333333  0.8719743858580058  0.1758907312255140
  0.6250000000000000  0.8719743858580058  0.2577245204115640
  0.6250000000000000  0.8303077191913392  0.3395583095976141
  0.5833333333333333  0.8719743858580058  0.3395583095976141
  0.6250000000000000  0.8719743858580058  0.4213920987836641
  0.6250000000000000  0.8303077191913392  0.5032258879697141
  0.5833333333333333  0.9553077191913393  0.8305610447139143
  0.6250000000000000  0.7469743858580058  0.3395583095976141
  0.6250000000000000  0.9553077191913393  0.9123948338999643
  0.7071384249877224  0.0000000000000000  0.1787275294970447
  0.7071384249877224  0.1250000000000000  0.5878964754272947
  0.7071384249877224  0.0833333333333333  0.6697302646133447
  0.6654717583210558  0.1250000000000000  0.6697302646133447
  0.7071384249877224  0.1250000000000000  0.7515640537993949
  0.7071384249877224  0.0833333333333333  0.8333978429854449
  0.6654717583210558  0.1250000000000000  0.8333978429854449
  0.7071384249877224  0.1250000000000000  0.9152316321714951
  0.7071384249877224  0.2083333333333333  0.0968937403109946
  0.6654717583210558  0.1250000000000000  0.5060626862412448
  0.7071384249877224  0.1666666666666667  0.1787275294970447
  0.7071384249877224  0.2083333333333333  0.2605613186830947
  0.7071384249877224  0.1666666666666667  0.3423951078691447
  0.6654717583210558  0.2083333333333333  0.3423951078691447
  0.7071384249877224  0.2083333333333333  0.4242288970551948
  0.7071384249877224  0.1666666666666667  0.5060626862412448
  0.6654717583210558  0.2083333333333333  0.5060626862412448
  0.7071384249877224  0.2083333333333333  0.5878964754272947
  0.7071384249877224  0.1666666666666667  0.6697302646133447
  0.6654717583210558  0.2083333333333333  0.1787275294970447
  0.7071384249877224  0.0833333333333333  0.5060626862412448
  0.7071384249877224  0.1250000000000000  0.4242288970551948
  0.6654717583210558  0.1250000000000000  0.3423951078691447
  0.6654717583210558  0.0416666666666667  0.1787275294970447
  0.7071384249877224  0.0416666666666667  0.2605613186830947
  0.7071384249877224  0.0000000000000000  0.3423951078691447
  0.6654717583210558  0.0416666666666667  0.3423951078691447
  0.7071384249877224  0.0416666666666667  0.4242288970551948
  0.7071384249877224  0.0000000000000000  0.5060626862412448
  0.6654717583210558  0.0416666666666667  0.5060626862412448
  0.7071384249877224  0.0416666666666667  0.5878964754272947
  0.7071384249877224  0.0000000000000000  0.6697302646133447
  0.6654717583210558  0.0416666666666667  0.6697302646133447
  0.7071384249877224  0.0416666666666667  0.7515640537993949
  0.7071384249877224  0.0000000000000000  0.8333978429854449
  0.6654717583210558  0.0416666666666667  0.8333978429854449
  0.7071384249877224  0.0416666666666667  0.9152316321714951
  0.7071384249877224  0.1250000000000000  0.0968937403109946
  0.7071384249877224  0.0833333333333333  0.1787275294970447
  0.6654717583210558  0.1250000000000000  0.1787275294970447
  0.7071384249877224  0.1250000000000000  0.2605613186830947
  0.7071384249877224  0.0833333333333333  0.3423951078691447
  0.7071384249877224  0.0416666666666667  0.0968937403109946
  0.6250000000000000  0.7886410525246724  0.2577245204115640
  0.5833333333333333  0.7886410525246724  0.1758907312255140
  0.6250000000000000  0.7469743858580058  0.1758907312255140
  0.6238050916543891  0.4166666666666666  0.1787275294970447
  0.5821384249877225  0.4583333333333334  0.1787275294970447
  0.6238050916543891  0.4583333333333334  0.2605613186830947
  0.6238050916543891  0.4166666666666666  0.3423951078691447
  0.5821384249877225  0.4583333333333334  0.3423951078691447
  0.6238050916543891  0.4583333333333334  0.4242288970551948
  0.6238050916543891  0.4166666666666666  0.5060626862412448
  0.5821384249877225  0.4583333333333334  0.5060626862412448
  0.6238050916543891  0.4583333333333334  0.0968937403109946
  0.6238050916543891  0.4583333333333334  0.5878964754272947
  0.5821384249877225  0.4583333333333334  0.6697302646133447
  0.6238050916543891  0.4583333333333334  0.7515640537993949
  0.6238050916543891  0.4166666666666666  0.8333978429854449
  0.5821384249877225  0.4583333333333334  0.8333978429854449
  0.6238050916543891  0.4583333333333334  0.9152316321714951
  0.6250000000000000  0.5386410525246725  0.0940569420394640
  0.6250000000000000  0.4969743858580058  0.1758907312255140
  0.5833333333333333  0.5386410525246725  0.1758907312255140
  0.6238050916543891  0.4166666666666666  0.6697302646133447
  0.6238050916543891  0.3749999999999999  0.9152316321714951
  0.5821384249877225  0.3749999999999999  0.8333978429854449
  0.6238050916543891  0.3333333333333333  0.8333978429854449
  0.6238050916543891  0.2500000000000000  0.6697302646133447
  0.5821384249877225  0.2916666666666666  0.6697302646133447
  0.6238050916543891  0.2916666666666666  0.7515640537993949
  0.6238050916543891  0.2500000000000000  0.8333978429854449
  0.5821384249877225  0.2916666666666666  0.8333978429854449
  0.6238050916543891  0.2916666666666666  0.9152316321714951
  0.6238050916543891  0.3749999999999999  0.0968937403109946
  0.6238050916543891  0.3333333333333333  0.1787275294970447
  0.5821384249877225  0.3749999999999999  0.1787275294970447
  0.6238050916543891  0.3749999999999999  0.2605613186830947
  0.6238050916543891  0.3333333333333333  0.3423951078691447
  0.5821384249877225  0.3749999999999999  0.3423951078691447
  0.6238050916543891  0.3749999999999999  0.4242288970551948
  0.6238050916543891  0.3333333333333333  0.5060626862412448
  0.5821384249877225  0.3749999999999999  0.5060626862412448
  0.6238050916543891  0.3749999999999999  0.5878964754272947
  0.6238050916543891  0.3333333333333333  0.6697302646133447
  0.5821384249877225  0.3749999999999999  0.6697302646133447
  0.6238050916543891  0.3749999999999999  0.7515640537993949
  0.6250000000000000  0.5386410525246725  0.2577245204115640
  0.6250000000000000  0.4969743858580058  0.3395583095976141
  0.5833333333333333  0.5386410525246725  0.3395583095976141
  0.6250000000000000  0.5386410525246725  0.4213920987836641
  0.5833333333333333  0.6219743858580058  0.8305610447139143
  0.6250000000000000  0.6219743858580058  0.9123948338999643
  0.6250000000000000  0.7053077191913392  0.0940569420394640
  0.6250000000000000  0.6636410525246724  0.1758907312255140
  0.5833333333333333  0.7053077191913392  0.1758907312255140
  0.6250000000000000  0.7053077191913392  0.2577245204115640
  0.6250000000000000  0.6636410525246724  0.3395583095976141
  0.5833333333333333  0.7053077191913392  0.3395583095976141
  0.6250000000000000  0.7053077191913392  0.4213920987836641
  0.6250000000000000  0.6636410525246724  0.5032258879697141
  0.5833333333333333  0.7053077191913392  0.5032258879697141
  0.6250000000000000  0.7053077191913392  0.5850596771557641
  0.6250000000000000  0.6636410525246724  0.6668934663418142
  0.5833333333333333  0.7053077191913392  0.6668934663418142
  0.6250000000000000  0.7053077191913392  0.7487272555278642
  0.6250000000000000  0.6636410525246724  0.8305610447139143
  0.5833333333333333  0.7053077191913392  0.8305610447139143
  0.6250000000000000  0.7053077191913392  0.9123948338999643
  0.6250000000000000  0.7886410525246724  0.0940569420394640
  0.6250000000000000  0.5803077191913392  0.8305610447139143
  0.4988050916543891  0.3749999999999999  0.3423951078691447
  0.6250000000000000  0.6219743858580058  0.7487272555278642
  0.6250000000000000  0.5803077191913392  0.6668934663418142
  0.6250000000000000  0.4969743858580058  0.5032258879697141
  0.5833333333333333  0.5386410525246725  0.5032258879697141
  0.6250000000000000  0.5386410525246725  0.5850596771557641
  0.6250000000000000  0.4969743858580058  0.6668934663418142
  0.5833333333333333  0.5386410525246725  0.6668934663418142
  0.6250000000000000  0.5386410525246725  0.7487272555278642
  0.6250000000000000  0.4969743858580058  0.8305610447139143
  0.5833333333333333  0.5386410525246725  0.8305610447139143
  0.6250000000000000  0.5386410525246725  0.9123948338999643
  0.6250000000000000  0.6219743858580058  0.0940569420394640
  0.6250000000000000  0.5803077191913392  0.1758907312255140
  0.5833333333333333  0.6219743858580058  0.1758907312255140
  0.6250000000000000  0.6219743858580058  0.2577245204115640
  0.6250000000000000  0.5803077191913392  0.3395583095976141
  0.5833333333333333  0.6219743858580058  0.3395583095976141
  0.6250000000000000  0.6219743858580058  0.4213920987836641
  0.6250000000000000  0.5803077191913392  0.5032258879697141
  0.5833333333333333  0.6219743858580058  0.5032258879697141
  0.6250000000000000  0.6219743858580058  0.5850596771557641
  0.5833333333333333  0.6219743858580058  0.6668934663418142
  0.5404717583210559  0.3333333333333333  0.3423951078691447
  0.5404717583210559  0.3749999999999999  0.2605613186830947
  0.4988050916543891  0.3749999999999999  0.1787275294970447
  0.4571384249877225  0.0000000000000000  0.8212724705029555
  0.4154717583210558  0.0416666666666667  0.8212724705029555
  0.4571384249877225  0.0416666666666667  0.9031062596890055
  0.4571384249877225  0.1250000000000000  0.0847683678285052
  0.4571384249877225  0.0833333333333333  0.1666021570145552
  0.4154717583210558  0.1250000000000000  0.1666021570145552
  0.4571384249877225  0.1250000000000000  0.2484359462006052
  0.4571384249877225  0.0833333333333333  0.3302697353866553
  0.4571384249877225  0.0416666666666667  0.7394386813169054
  0.4154717583210558  0.1250000000000000  0.3302697353866553
  0.4571384249877225  0.0833333333333333  0.4939373137587553
  0.4154717583210558  0.1250000000000000  0.4939373137587553
  0.4571384249877225  0.1250000000000000  0.5757711029448053
  0.4571384249877225  0.0833333333333333  0.6576048921308554
  0.4154717583210558  0.1250000000000000  0.6576048921308554
  0.4571384249877225  0.1250000000000000  0.7394386813169054
  0.4571384249877225  0.0833333333333333  0.8212724705029555
  0.4154717583210558  0.1250000000000000  0.8212724705029555
  0.4571384249877225  0.1250000000000000  0.4121035245727053
  0.4154717583210558  0.0416666666666667  0.6576048921308554
  0.4571384249877225  0.0000000000000000  0.6576048921308554
  0.4571384249877225  0.0416666666666667  0.5757711029448053
  0.3719743858580059  0.9583333333333334  0.4149403228442359
  0.3719743858580059  0.9166666666666667  0.4967741120302859
  0.3303077191913392  0.9583333333333334  0.4967741120302859
  0.3719743858580059  0.9583333333333334  0.5786079012163360
  0.3719743858580059  0.9166666666666667  0.6604416904023861
  0.3303077191913392  0.9583333333333334  0.6604416904023861
  0.3719743858580059  0.9583333333333334  0.7422754795884361
  0.3719743858580059  0.9166666666666667  0.8241092687744861
  0.3303077191913392  0.9583333333333334  0.8241092687744861
  0.3719743858580059  0.9583333333333334  0.9059430579605362
  0.4571384249877225  0.0416666666666667  0.0847683678285052
  0.4571384249877225  0.0000000000000000  0.1666021570145552
  0.4154717583210558  0.0416666666666667  0.1666021570145552
  0.4571384249877225  0.0416666666666667  0.2484359462006052
  0.4571384249877225  0.0000000000000000  0.3302697353866553
  0.4154717583210558  0.0416666666666667  0.3302697353866553
  0.4571384249877225  0.0416666666666667  0.4121035245727053
  0.4571384249877225  0.0000000000000000  0.4939373137587553
  0.4154717583210558  0.0416666666666667  0.4939373137587553
  0.4571384249877225  0.1250000000000000  0.9031062596890055
  0.3303077191913392  0.9583333333333334  0.3331065336581859
  0.4571384249877225  0.2083333333333333  0.0847683678285052
  0.4154717583210558  0.2083333333333333  0.1666021570145552
  0.4571384249877225  0.2500000000000000  0.6576048921308554
  0.4154717583210558  0.2916666666666666  0.6576048921308554
  0.4571384249877225  0.2916666666666666  0.7394386813169054
  0.4571384249877225  0.2500000000000000  0.8212724705029555
  0.4154717583210558  0.2916666666666666  0.8212724705029555
  0.4571384249877225  0.2916666666666666  0.9031062596890055
  0.4571384249877225  0.3749999999999999  0.0847683678285052
  0.4571384249877225  0.3333333333333333  0.1666021570145552
  0.4571384249877225  0.2916666666666666  0.5757711029448053
  0.4154717583210558  0.3749999999999999  0.1666021570145552
  0.4571384249877225  0.3333333333333333  0.3302697353866553
  0.4154717583210558  0.3749999999999999  0.3302697353866553
  0.4571384249877225  0.3749999999999999  0.4121035245727053
  0.4571384249877225  0.3333333333333333  0.4939373137587553
  0.4154717583210558  0.3749999999999999  0.4939373137587553
  0.4571384249877225  0.3749999999999999  0.5757711029448053
  0.4571384249877225  0.3333333333333333  0.6576048921308554
  0.4154717583210558  0.3749999999999999  0.6576048921308554
  0.4571384249877225  0.3749999999999999  0.2484359462006052
  0.4154717583210558  0.2916666666666666  0.4939373137587553
  0.4571384249877225  0.2500000000000000  0.4939373137587553
  0.4571384249877225  0.2916666666666666  0.4121035245727053
  0.4571384249877225  0.2083333333333333  0.2484359462006052
  0.4571384249877225  0.1666666666666667  0.3302697353866553
  0.4154717583210558  0.2083333333333333  0.3302697353866553
  0.4571384249877225  0.2083333333333333  0.4121035245727053
  0.4571384249877225  0.1666666666666667  0.4939373137587553
  0.4154717583210558  0.2083333333333333  0.4939373137587553
  0.4571384249877225  0.2083333333333333  0.5757711029448053
  0.4571384249877225  0.1666666666666667  0.6576048921308554
  0.4154717583210558  0.2083333333333333  0.6576048921308554
  0.4571384249877225  0.2083333333333333  0.7394386813169054
  0.4571384249877225  0.1666666666666667  0.8212724705029555
  0.4154717583210558  0.2083333333333333  0.8212724705029555
  0.4571384249877225  0.2083333333333333  0.9031062596890055
  0.4571384249877225  0.2916666666666666  0.0847683678285052
  0.4571384249877225  0.2500000000000000  0.1666021570145552
  0.4154717583210558  0.2916666666666666  0.1666021570145552
  0.4571384249877225  0.2916666666666666  0.2484359462006052
  0.4571384249877225  0.2500000000000000  0.3302697353866553
  0.4154717583210558  0.2916666666666666  0.3302697353866553
  0.4571384249877225  0.1666666666666667  0.1666021570145552
  0.3719743858580059  0.9166666666666667  0.3331065336581859
  0.3719743858580059  0.9583333333333334  0.2512727444721359
  0.3303077191913392  0.9583333333333334  0.1694389552860858
  0.3303077191913392  0.6250000000000000  0.1694389552860858
  0.3719743858580059  0.6250000000000000  0.2512727444721359
  0.3719743858580059  0.5833333333333333  0.3331065336581859
  0.3303077191913392  0.6250000000000000  0.3331065336581859
  0.3719743858580059  0.6250000000000000  0.4149403228442359
  0.3719743858580059  0.5833333333333333  0.4967741120302859
  0.3303077191913392  0.6250000000000000  0.4967741120302859
  0.3719743858580059  0.6250000000000000  0.5786079012163360
  0.3719743858580059  0.5833333333333333  0.1694389552860858
  0.3719743858580059  0.5833333333333333  0.6604416904023861
  0.3719743858580059  0.6250000000000000  0.7422754795884361
  0.3719743858580059  0.5833333333333333  0.8241092687744861
  0.3303077191913392  0.6250000000000000  0.8241092687744861
  0.3719743858580059  0.6250000000000000  0.9059430579605362
  0.3719743858580059  0.7083333333333333  0.0876051661000358
  0.3719743858580059  0.6666666666666666  0.1694389552860858
  0.3303077191913392  0.7083333333333333  0.1694389552860858
  0.3719743858580059  0.7083333333333333  0.2512727444721359
  0.3303077191913392  0.6250000000000000  0.6604416904023861
  0.3719743858580059  0.6250000000000000  0.0876051661000358
  0.3719743858580059  0.5416666666666666  0.9059430579605362
  0.3303077191913392  0.5416666666666666  0.8241092687744861
  0.3321384249877225  0.4583333333333334  0.6576048921308554
  0.3738050916543892  0.4583333333333334  0.7394386813169054
  0.3738050916543892  0.4166666666666666  0.8212724705029555
  0.3321384249877225  0.4583333333333334  0.8212724705029555
  0.3738050916543892  0.4583333333333334  0.9031062596890055
  0.3719743858580059  0.5416666666666666  0.0876051661000358
  0.3719743858580059  0.5000000000000000  0.1694389552860858
  0.3303077191913392  0.5416666666666666  0.1694389552860858
  0.3719743858580059  0.5416666666666666  0.2512727444721359
  0.3719743858580059  0.5000000000000000  0.3331065336581859
  0.3303077191913392  0.5416666666666666  0.3331065336581859
  0.3719743858580059  0.5416666666666666  0.4149403228442359
  0.3719743858580059  0.5000000000000000  0.4967741120302859
  0.3303077191913392  0.5416666666666666  0.4967741120302859
  0.3719743858580059  0.5416666666666666  0.5786079012163360
  0.3719743858580059  0.5000000000000000  0.6604416904023861
  0.3303077191913392  0.5416666666666666  0.6604416904023861
  0.3719743858580059  0.5416666666666666  0.7422754795884361
  0.3719743858580059  0.5000000000000000  0.8241092687744861
  0.3719743858580059  0.6666666666666666  0.3331065336581859
  0.3303077191913392  0.7083333333333333  0.3331065336581859
  0.3719743858580059  0.7083333333333333  0.4149403228442359
  0.3719743858580059  0.6666666666666666  0.4967741120302859
  0.3719743858580059  0.7916666666666665  0.9059430579605362
  0.3719743858580059  0.8749999999999999  0.0876051661000358
  0.3719743858580059  0.8333333333333333  0.1694389552860858
  0.3303077191913392  0.8749999999999999  0.1694389552860858
  0.3719743858580059  0.8749999999999999  0.2512727444721359
  0.3719743858580059  0.8333333333333333  0.3331065336581859
  0.3303077191913392  0.8749999999999999  0.3331065336581859
  0.3719743858580059  0.8749999999999999  0.4149403228442359
  0.3719743858580059  0.8333333333333333  0.4967741120302859
  0.3303077191913392  0.8749999999999999  0.4967741120302859
  0.3719743858580059  0.8749999999999999  0.5786079012163360
  0.3719743858580059  0.8333333333333333  0.6604416904023861
  0.3303077191913392  0.8749999999999999  0.6604416904023861
  0.3719743858580059  0.8749999999999999  0.7422754795884361
  0.3719743858580059  0.8333333333333333  0.8241092687744861
  0.3303077191913392  0.8749999999999999  0.8241092687744861
  0.3719743858580059  0.8749999999999999  0.9059430579605362
  0.3719743858580059  0.9583333333333334  0.0876051661000358
  0.3719743858580059  0.9166666666666667  0.1694389552860858
  0.3303077191913392  0.7916666666666665  0.8241092687744861
  0.4571384249877225  0.3749999999999999  0.7394386813169054
  0.3719743858580059  0.7499999999999999  0.8241092687744861
  0.3303077191913392  0.7916666666666665  0.6604416904023861
  0.3303077191913392  0.7083333333333333  0.4967741120302859
  0.3719743858580059  0.7083333333333333  0.5786079012163360
  0.3719743858580059  0.6666666666666666  0.6604416904023861
  0.3303077191913392  0.7083333333333333  0.6604416904023861
  0.3719743858580059  0.7083333333333333  0.7422754795884361
  0.3719743858580059  0.6666666666666666  0.8241092687744861
  0.3303077191913392  0.7083333333333333  0.8241092687744861
  0.3719743858580059  0.7083333333333333  0.9059430579605362
  0.3719743858580059  0.7916666666666665  0.0876051661000358
  0.3719743858580059  0.7499999999999999  0.1694389552860858
  0.3303077191913392  0.7916666666666665  0.1694389552860858
  0.3719743858580059  0.7916666666666665  0.2512727444721359
  0.3719743858580059  0.7499999999999999  0.3331065336581859
  0.3303077191913392  0.7916666666666665  0.3331065336581859
  0.3719743858580059  0.7916666666666665  0.4149403228442359
  0.3719743858580059  0.7499999999999999  0.4967741120302859
  0.3303077191913392  0.7916666666666665  0.4967741120302859
  0.3719743858580059  0.7916666666666665  0.5786079012163360
  0.3719743858580059  0.7499999999999999  0.6604416904023861
  0.3719743858580059  0.7916666666666665  0.7422754795884361
  0.6654717583210558  0.2083333333333333  0.6697302646133447
  0.4571384249877225  0.3333333333333333  0.8212724705029555
  0.4571384249877225  0.3749999999999999  0.9031062596890055
  0.5404717583210559  0.0416666666666667  0.2605613186830947
  0.5404717583210559  0.0000000000000000  0.3423951078691447
  0.4988050916543891  0.0416666666666667  0.3423951078691447
  0.5404717583210559  0.0416666666666667  0.4242288970551948
  0.5404717583210559  0.0000000000000000  0.5060626862412448
  0.4988050916543891  0.0416666666666667  0.5060626862412448
  0.5404717583210559  0.0416666666666667  0.5878964754272947
  0.5404717583210559  0.0000000000000000  0.6697302646133447
  0.4988050916543891  0.0416666666666667  0.1787275294970447
  0.4988050916543891  0.0416666666666667  0.6697302646133447
  0.5404717583210559  0.0000000000000000  0.8333978429854449
  0.4988050916543891  0.0416666666666667  0.8333978429854449
  0.5404717583210559  0.0416666666666667  0.9152316321714951
  0.5404717583210559  0.1250000000000000  0.0968937403109946
  0.5404717583210559  0.0833333333333333  0.1787275294970447
  0.4988050916543891  0.1250000000000000  0.1787275294970447
  0.5404717583210559  0.1250000000000000  0.2605613186830947
  0.5404717583210559  0.0833333333333333  0.3423951078691447
  0.5404717583210559  0.0416666666666667  0.7515640537993949
  0.5404717583210559  0.0000000000000000  0.1787275294970447
  0.5404717583210559  0.0416666666666667  0.0968937403109946
  0.4136410525246725  0.9583333333333334  0.8241092687744861
  0.4136410525246725  0.8749999999999999  0.6604416904023861
  0.4553077191913392  0.8749999999999999  0.7422754795884361
  0.4553077191913392  0.8333333333333333  0.8241092687744861
  0.4136410525246725  0.8749999999999999  0.8241092687744861
  0.4553077191913392  0.8749999999999999  0.9059430579605362
  0.4553077191913392  0.9583333333333334  0.0876051661000358
  0.4553077191913392  0.9166666666666667  0.1694389552860858
  0.4136410525246725  0.9583333333333334  0.1694389552860858
  0.4553077191913392  0.9583333333333334  0.2512727444721359
  0.4553077191913392  0.9166666666666667  0.3331065336581859
  0.4136410525246725  0.9583333333333334  0.3331065336581859
  0.4553077191913392  0.9583333333333334  0.4149403228442359
  0.4553077191913392  0.9166666666666667  0.4967741120302859
  0.4136410525246725  0.9583333333333334  0.4967741120302859
  0.4553077191913392  0.9583333333333334  0.5786079012163360
  0.4553077191913392  0.9166666666666667  0.6604416904023861
  0.4136410525246725  0.9583333333333334  0.6604416904023861
  0.4553077191913392  0.9583333333333334  0.7422754795884361
  0.4553077191913392  0.9166666666666667  0.8241092687744861
  0.4988050916543891  0.1250000000000000  0.3423951078691447
  0.4553077191913392  0.8333333333333333  0.6604416904023861
  0.5404717583210559  0.1250000000000000  0.4242288970551948
  0.4988050916543891  0.1250000000000000  0.5060626862412448
  0.5404717583210559  0.2916666666666666  0.0968937403109946
  0.5404717583210559  0.2500000000000000  0.1787275294970447
  0.4988050916543891  0.2916666666666666  0.1787275294970447
  0.5404717583210559  0.2916666666666666  0.2605613186830947
  0.5404717583210559  0.2500000000000000  0.3423951078691447
  0.4988050916543891  0.2916666666666666  0.3423951078691447
  0.5404717583210559  0.2916666666666666  0.4242288970551948
  0.5404717583210559  0.2500000000000000  0.5060626862412448
  0.5404717583210559  0.2083333333333333  0.9152316321714951
  0.4988050916543891  0.2916666666666666  0.5060626862412448
  0.5404717583210559  0.2500000000000000  0.6697302646133447
  0.4988050916543891  0.2916666666666666  0.6697302646133447
  0.5404717583210559  0.2916666666666666  0.7515640537993949
  0.5404717583210559  0.2500000000000000  0.8333978429854449
  0.4988050916543891  0.2916666666666666  0.8333978429854449
  0.5404717583210559  0.2916666666666666  0.9152316321714951
  0.5404717583210559  0.3749999999999999  0.0968937403109946
  0.5404717583210559  0.3333333333333333  0.1787275294970447
  0.5404717583210559  0.2916666666666666  0.5878964754272947
  0.4988050916543891  0.2083333333333333  0.8333978429854449
  0.5404717583210559  0.1666666666666667  0.8333978429854449
  0.5404717583210559  0.2083333333333333  0.7515640537993949
  0.5404717583210559  0.1250000000000000  0.5878964754272947
  0.5404717583210559  0.0833333333333333  0.6697302646133447
  0.4988050916543891  0.1250000000000000  0.6697302646133447
  0.5404717583210559  0.1250000000000000  0.7515640537993949
  0.5404717583210559  0.0833333333333333  0.8333978429854449
  0.4988050916543891  0.1250000000000000  0.8333978429854449
  0.5404717583210559  0.1250000000000000  0.9152316321714951
  0.5404717583210559  0.2083333333333333  0.0968937403109946
  0.5404717583210559  0.1666666666666667  0.1787275294970447
  0.4988050916543891  0.2083333333333333  0.1787275294970447
  0.5404717583210559  0.2083333333333333  0.2605613186830947
  0.5404717583210559  0.1666666666666667  0.3423951078691447
  0.4988050916543891  0.2083333333333333  0.3423951078691447
  0.5404717583210559  0.2083333333333333  0.4242288970551948
  0.5404717583210559  0.1666666666666667  0.5060626862412448
  0.4988050916543891  0.2083333333333333  0.5060626862412448
  0.5404717583210559  0.2083333333333333  0.5878964754272947
  0.5404717583210559  0.1666666666666667  0.6697302646133447
  0.4988050916543891  0.2083333333333333  0.6697302646133447
  0.5404717583210559  0.0833333333333333  0.5060626862412448
  0.4553077191913392  0.8749999999999999  0.5786079012163360
  0.4136410525246725  0.8749999999999999  0.4967741120302859
  0.4553077191913392  0.8333333333333333  0.4967741120302859
  0.4553077191913392  0.5000000000000000  0.4967741120302859
  0.4136410525246725  0.5416666666666666  0.4967741120302859
  0.4553077191913392  0.5416666666666666  0.5786079012163360
  0.4553077191913392  0.5000000000000000  0.6604416904023861
  0.4136410525246725  0.5416666666666666  0.6604416904023861
  0.4553077191913392  0.5416666666666666  0.7422754795884361
  0.4553077191913392  0.5000000000000000  0.8241092687744861
  0.4136410525246725  0.5416666666666666  0.8241092687744861
  0.4553077191913392  0.5416666666666666  0.4149403228442359
  0.4553077191913392  0.5416666666666666  0.9059430579605362
  0.4553077191913392  0.5833333333333333  0.1694389552860858
  0.4136410525246725  0.6250000000000000  0.1694389552860858
  0.4553077191913392  0.6250000000000000  0.2512727444721359
  0.4553077191913392  0.5833333333333333  0.3331065336581859
  0.4136410525246725  0.6250000000000000  0.3331065336581859
  0.4553077191913392  0.6250000000000000  0.4149403228442359
  0.4553077191913392  0.5833333333333333  0.4967741120302859
  0.4136410525246725  0.6250000000000000  0.4967741120302859
  0.4553077191913392  0.6250000000000000  0.0876051661000358
  0.4136410525246725  0.5416666666666666  0.3331065336581859
  0.4553077191913392  0.5000000000000000  0.3331065336581859
  0.4553077191913392  0.5416666666666666  0.2512727444721359
  0.4571384249877225  0.4583333333333334  0.0847683678285052
  0.4571384249877225  0.4166666666666666  0.1666021570145552
  0.4154717583210558  0.4583333333333334  0.1666021570145552
  0.4571384249877225  0.4583333333333334  0.2484359462006052
  0.4571384249877225  0.4166666666666666  0.3302697353866553
  0.4154717583210558  0.4583333333333334  0.3302697353866553
  0.4571384249877225  0.4583333333333334  0.4121035245727053
  0.4571384249877225  0.4166666666666666  0.4939373137587553
  0.4154717583210558  0.4583333333333334  0.4939373137587553
  0.4571384249877225  0.4583333333333334  0.5757711029448053
  0.4571384249877225  0.4166666666666666  0.6576048921308554
  0.4154717583210558  0.4583333333333334  0.6576048921308554
  0.4571384249877225  0.4583333333333334  0.7394386813169054
  0.4571384249877225  0.4166666666666666  0.8212724705029555
  0.4154717583210558  0.4583333333333334  0.8212724705029555
  0.4571384249877225  0.4583333333333334  0.9031062596890055
  0.4553077191913392  0.5416666666666666  0.0876051661000358
  0.4553077191913392  0.5000000000000000  0.1694389552860858
  0.4136410525246725  0.5416666666666666  0.1694389552860858
  0.4553077191913392  0.6250000000000000  0.5786079012163360
  0.4553077191913392  0.5833333333333333  0.6604416904023861
  0.4136410525246725  0.6250000000000000  0.6604416904023861
  0.4553077191913392  0.6250000000000000  0.7422754795884361
  0.4553077191913392  0.7499999999999999  0.3331065336581859
  0.4136410525246725  0.7916666666666665  0.3331065336581859
  0.4553077191913392  0.7916666666666665  0.4149403228442359
  0.4553077191913392  0.7499999999999999  0.4967741120302859
  0.4136410525246725  0.7916666666666665  0.4967741120302859
  0.4553077191913392  0.7916666666666665  0.5786079012163360
  0.4553077191913392  0.7499999999999999  0.6604416904023861
  0.4136410525246725  0.7916666666666665  0.6604416904023861
  0.4553077191913392  0.7916666666666665  0.7422754795884361
  0.4553077191913392  0.7499999999999999  0.8241092687744861
  0.4136410525246725  0.7916666666666665  0.8241092687744861
  0.4553077191913392  0.7916666666666665  0.9059430579605362
  0.4553077191913392  0.8749999999999999  0.0876051661000358
  0.4553077191913392  0.8333333333333333  0.1694389552860858
  0.4136410525246725  0.8749999999999999  0.1694389552860858
  0.4553077191913392  0.8749999999999999  0.2512727444721359
  0.4553077191913392  0.8333333333333333  0.3331065336581859
  0.4136410525246725  0.8749999999999999  0.3331065336581859
  0.4553077191913392  0.8749999999999999  0.4149403228442359
  0.4553077191913392  0.7916666666666665  0.2512727444721359
  0.4154717583210558  0.3749999999999999  0.8212724705029555
  0.4136410525246725  0.7916666666666665  0.1694389552860858
  0.4553077191913392  0.7916666666666665  0.0876051661000358
  0.4553077191913392  0.5833333333333333  0.8241092687744861
  0.4136410525246725  0.6250000000000000  0.8241092687744861
  0.4553077191913392  0.6250000000000000  0.9059430579605362
  0.4553077191913392  0.7083333333333333  0.0876051661000358
  0.4553077191913392  0.6666666666666666  0.1694389552860858
  0.4136410525246725  0.7083333333333333  0.1694389552860858
  0.4553077191913392  0.7083333333333333  0.2512727444721359
  0.4553077191913392  0.6666666666666666  0.3331065336581859
  0.4136410525246725  0.7083333333333333  0.3331065336581859
  0.4553077191913392  0.7083333333333333  0.4149403228442359
  0.4553077191913392  0.6666666666666666  0.4967741120302859
  0.4136410525246725  0.7083333333333333  0.4967741120302859
  0.4553077191913392  0.7083333333333333  0.5786079012163360
  0.4553077191913392  0.6666666666666666  0.6604416904023861
  0.4136410525246725  0.7083333333333333  0.6604416904023861
  0.4553077191913392  0.7083333333333333  0.7422754795884361
  0.4553077191913392  0.6666666666666666  0.8241092687744861
  0.4136410525246725  0.7083333333333333  0.8241092687744861
  0.4553077191913392  0.7083333333333333  0.9059430579605362
  0.4553077191913392  0.7499999999999999  0.1694389552860858
  0.7071384249877224  0.2083333333333333  0.7515640537993949
  0.7071384249877224  0.1666666666666667  0.8333978429854449
  0.6654717583210558  0.2083333333333333  0.8333978429854449
  0.8333333333333333  0.7053077191913392  0.6668934663418142
  0.8749999999999999  0.7053077191913392  0.7487272555278642
  0.8749999999999999  0.6636410525246724  0.8305610447139143
  0.8333333333333333  0.7053077191913392  0.8305610447139143
  0.8749999999999999  0.7053077191913392  0.9123948338999643
  0.8749999999999999  0.7886410525246724  0.0940569420394640
  0.8749999999999999  0.7469743858580058  0.1758907312255140
  0.8333333333333333  0.7886410525246724  0.1758907312255140
  0.8749999999999999  0.6636410525246724  0.6668934663418142
  0.8749999999999999  0.7886410525246724  0.2577245204115640
  0.8333333333333333  0.7886410525246724  0.3395583095976141
  0.8749999999999999  0.7886410525246724  0.4213920987836641
  0.8749999999999999  0.7469743858580058  0.5032258879697141
  0.8333333333333333  0.7886410525246724  0.5032258879697141
  0.8749999999999999  0.7886410525246724  0.5850596771557641
  0.8749999999999999  0.7469743858580058  0.6668934663418142
  0.8333333333333333  0.7886410525246724  0.6668934663418142
  0.8749999999999999  0.7886410525246724  0.7487272555278642
  0.8749999999999999  0.7469743858580058  0.3395583095976141
  0.8749999999999999  0.7053077191913392  0.5850596771557641
  0.8333333333333333  0.7053077191913392  0.5032258879697141
  0.8749999999999999  0.6636410525246724  0.5032258879697141
  0.8749999999999999  0.5803077191913392  0.3395583095976141
  0.8333333333333333  0.6219743858580058  0.3395583095976141
  0.8749999999999999  0.6219743858580058  0.4213920987836641
  0.8749999999999999  0.5803077191913392  0.5032258879697141
  0.8333333333333333  0.6219743858580058  0.5032258879697141
  0.8749999999999999  0.6219743858580058  0.5850596771557641
  0.8749999999999999  0.5803077191913392  0.6668934663418142
  0.8333333333333333  0.6219743858580058  0.6668934663418142
  0.8749999999999999  0.6219743858580058  0.7487272555278642
  0.8749999999999999  0.5803077191913392  0.8305610447139143
  0.8333333333333333  0.6219743858580058  0.8305610447139143
  0.8749999999999999  0.6219743858580058  0.9123948338999643
  0.8749999999999999  0.7053077191913392  0.0940569420394640
  0.8749999999999999  0.6636410525246724  0.1758907312255140
  0.8333333333333333  0.7053077191913392  0.1758907312255140
  0.8749999999999999  0.7053077191913392  0.2577245204115640
  0.8749999999999999  0.6636410525246724  0.3395583095976141
  0.8333333333333333  0.7053077191913392  0.3395583095976141
  0.8749999999999999  0.7053077191913392  0.4213920987836641
  0.8749999999999999  0.7469743858580058  0.8305610447139143
  0.8749999999999999  0.6219743858580058  0.2577245204115640
  0.8333333333333333  0.7886410525246724  0.8305610447139143
  0.8749999999999999  0.8719743858580058  0.0940569420394640
  0.8333333333333333  0.9553077191913393  0.5032258879697141
  0.8749999999999999  0.9553077191913393  0.5850596771557641
  0.8749999999999999  0.9136410525246726  0.6668934663418142
  0.8333333333333333  0.9553077191913393  0.6668934663418142
  0.8749999999999999  0.9553077191913393  0.7487272555278642
  0.8749999999999999  0.9136410525246726  0.8305610447139143
  0.8333333333333333  0.9553077191913393  0.8305610447139143
  0.8749999999999999  0.9553077191913393  0.9123948338999643
  0.8749999999999999  0.9136410525246726  0.5032258879697141
  0.9571384249877225  0.0416666666666667  0.0968937403109946
  0.9154717583210559  0.0416666666666667  0.1787275294970447
  0.9571384249877225  0.0416666666666667  0.2605613186830947
  0.9571384249877225  0.0000000000000000  0.3423951078691447
  0.9154717583210559  0.0416666666666667  0.3423951078691447
  0.9571384249877225  0.0416666666666667  0.4242288970551948
  0.9571384249877225  0.0000000000000000  0.5060626862412448
  0.9154717583210559  0.0416666666666667  0.5060626862412448
  0.9571384249877225  0.0416666666666667  0.5878964754272947
  0.9571384249877225  0.0000000000000000  0.1787275294970447
  0.8749999999999999  0.9553077191913393  0.4213920987836641
  0.8333333333333333  0.9553077191913393  0.3395583095976141
  0.8749999999999999  0.9136410525246726  0.3395583095976141
  0.8749999999999999  0.8303077191913392  0.1758907312255140
  0.8333333333333333  0.8719743858580058  0.1758907312255140
  0.8749999999999999  0.8719743858580058  0.2577245204115640
  0.8749999999999999  0.8303077191913392  0.3395583095976141
  0.8333333333333333  0.8719743858580058  0.3395583095976141
  0.8749999999999999  0.8719743858580058  0.4213920987836641
  0.8749999999999999  0.8303077191913392  0.5032258879697141
  0.8333333333333333  0.8719743858580058  0.5032258879697141
  0.8749999999999999  0.8719743858580058  0.5850596771557641
  0.8749999999999999  0.8303077191913392  0.6668934663418142
  0.8333333333333333  0.8719743858580058  0.6668934663418142
  0.8749999999999999  0.8719743858580058  0.7487272555278642
  0.8749999999999999  0.8303077191913392  0.8305610447139143
  0.8333333333333333  0.8719743858580058  0.8305610447139143
  0.8749999999999999  0.8719743858580058  0.9123948338999643
  0.8749999999999999  0.9553077191913393  0.0940569420394640
  0.8749999999999999  0.9136410525246726  0.1758907312255140
  0.8333333333333333  0.9553077191913393  0.1758907312255140
  0.8749999999999999  0.9553077191913393  0.2577245204115640
  0.8749999999999999  0.7886410525246724  0.9123948338999643
  0.8333333333333333  0.6219743858580058  0.1758907312255140
  0.8749999999999999  0.5803077191913392  0.1758907312255140
  0.8749999999999999  0.6219743858580058  0.0940569420394640
  0.8738050916543891  0.2916666666666666  0.0968937403109946
  0.8738050916543891  0.2500000000000000  0.1787275294970447
  0.8321384249877225  0.2916666666666666  0.1787275294970447
  0.8738050916543891  0.2916666666666666  0.2605613186830947
  0.8738050916543891  0.2500000000000000  0.3423951078691447
  0.8321384249877225  0.2916666666666666  0.3423951078691447
  0.8738050916543891  0.2916666666666666  0.4242288970551948
  0.8738050916543891  0.2500000000000000  0.5060626862412448
  0.8738050916543891  0.2083333333333333  0.9152316321714951
  0.8321384249877225  0.2916666666666666  0.5060626862412448
  0.8738050916543891  0.2500000000000000  0.6697302646133447
  0.8321384249877225  0.2916666666666666  0.6697302646133447
  0.8738050916543891  0.2916666666666666  0.7515640537993949
  0.8738050916543891  0.2500000000000000  0.8333978429854449
  0.8321384249877225  0.2916666666666666  0.8333978429854449
  0.8738050916543891  0.2916666666666666  0.9152316321714951
  0.8738050916543891  0.3749999999999999  0.0968937403109946
  0.8738050916543891  0.3333333333333333  0.1787275294970447
  0.8738050916543891  0.2916666666666666  0.5878964754272947
  0.8321384249877225  0.2083333333333333  0.8333978429854449
  0.8738050916543891  0.1666666666666667  0.8333978429854449
  0.8738050916543891  0.2083333333333333  0.7515640537993949
  0.8738050916543891  0.1250000000000000  0.5878964754272947
  0.8738050916543891  0.0833333333333333  0.6697302646133447
  0.8321384249877225  0.1250000000000000  0.6697302646133447
  0.8738050916543891  0.1250000000000000  0.7515640537993949
  0.8738050916543891  0.0833333333333333  0.8333978429854449
  0.8321384249877225  0.1250000000000000  0.8333978429854449
  0.8738050916543891  0.1250000000000000  0.9152316321714951
  0.8738050916543891  0.2083333333333333  0.0968937403109946
  0.8738050916543891  0.1666666666666667  0.1787275294970447
  0.8321384249877225  0.2083333333333333  0.1787275294970447
  0.8738050916543891  0.2083333333333333  0.2605613186830947
  0.8738050916543891  0.1666666666666667  0.3423951078691447
  0.8321384249877225  0.2083333333333333  0.3423951078691447
  0.8738050916543891  0.2083333333333333  0.4242288970551948
  0.8738050916543891  0.1666666666666667  0.5060626862412448
  0.8321384249877225  0.2083333333333333  0.5060626862412448
  0.8738050916543891  0.2083333333333333  0.5878964754272947
  0.8738050916543891  0.1666666666666667  0.6697302646133447
  0.8321384249877225  0.2083333333333333  0.6697302646133447
  0.8321384249877225  0.3749999999999999  0.1787275294970447
  0.8738050916543891  0.3749999999999999  0.2605613186830947
  0.8738050916543891  0.3333333333333333  0.3423951078691447
  0.8321384249877225  0.3749999999999999  0.3423951078691447
  0.8738050916543891  0.4166666666666666  0.8333978429854449
  0.8321384249877225  0.4583333333333334  0.8333978429854449
  0.8738050916543891  0.4583333333333334  0.9152316321714951
  0.8749999999999999  0.5386410525246725  0.0940569420394640
  0.8749999999999999  0.4969743858580058  0.1758907312255140
  0.8333333333333333  0.5386410525246725  0.1758907312255140
  0.8749999999999999  0.5386410525246725  0.2577245204115640
  0.8749999999999999  0.4969743858580058  0.3395583095976141
  0.8333333333333333  0.5386410525246725  0.3395583095976141
  0.8749999999999999  0.5386410525246725  0.4213920987836641
  0.8749999999999999  0.4969743858580058  0.5032258879697141
  0.8333333333333333  0.5386410525246725  0.5032258879697141
  0.8749999999999999  0.5386410525246725  0.5850596771557641
  0.8749999999999999  0.4969743858580058  0.6668934663418142
  0.8333333333333333  0.5386410525246725  0.6668934663418142
  0.8749999999999999  0.5386410525246725  0.7487272555278642
  0.8749999999999999  0.4969743858580058  0.8305610447139143
  0.8333333333333333  0.5386410525246725  0.8305610447139143
  0.8749999999999999  0.5386410525246725  0.9123948338999643
  0.8738050916543891  0.4583333333333334  0.7515640537993949
  0.9571384249877225  0.0000000000000000  0.6697302646133447
  0.8321384249877225  0.4583333333333334  0.6697302646133447
  0.8738050916543891  0.4583333333333334  0.5878964754272947
  0.8738050916543891  0.3749999999999999  0.4242288970551948
  0.8738050916543891  0.3333333333333333  0.5060626862412448
  0.8321384249877225  0.3749999999999999  0.5060626862412448
  0.8738050916543891  0.3749999999999999  0.5878964754272947
  0.8738050916543891  0.3333333333333333  0.6697302646133447
  0.8321384249877225  0.3749999999999999  0.6697302646133447
  0.8738050916543891  0.3749999999999999  0.7515640537993949
  0.8738050916543891  0.3333333333333333  0.8333978429854449
  0.8321384249877225  0.3749999999999999  0.8333978429854449
  0.8738050916543891  0.3749999999999999  0.9152316321714951
  0.8738050916543891  0.4583333333333334  0.0968937403109946
  0.8738050916543891  0.4166666666666666  0.1787275294970447
  0.8321384249877225  0.4583333333333334  0.1787275294970447
  0.8738050916543891  0.4583333333333334  0.2605613186830947
  0.8738050916543891  0.4166666666666666  0.3423951078691447
  0.8321384249877225  0.4583333333333334  0.3423951078691447
  0.8738050916543891  0.4583333333333334  0.4242288970551948
  0.8738050916543891  0.4166666666666666  0.5060626862412448
  0.8321384249877225  0.4583333333333334  0.5060626862412448
  0.8738050916543891  0.4166666666666666  0.6697302646133447
  0.8321384249877225  0.1250000000000000  0.5060626862412448
  0.9154717583210559  0.0416666666666667  0.6697302646133447
  0.9571384249877225  0.0000000000000000  0.8333978429854449
  0.9583333333333334  0.7053077191913392  0.0940569420394640
  0.9583333333333334  0.6636410525246724  0.1758907312255140
  0.9166666666666667  0.7053077191913392  0.1758907312255140
  0.9583333333333334  0.7053077191913392  0.2577245204115640
  0.9583333333333334  0.6636410525246724  0.3395583095976141
  0.9166666666666667  0.7053077191913392  0.3395583095976141
  0.9583333333333334  0.7053077191913392  0.4213920987836641
  0.9583333333333334  0.6636410525246724  0.5032258879697141
  0.9583333333333334  0.6219743858580058  0.9123948338999643
  0.9166666666666667  0.7053077191913392  0.5032258879697141
  0.9583333333333334  0.6636410525246724  0.6668934663418142
  0.9166666666666667  0.7053077191913392  0.6668934663418142
  0.9583333333333334  0.7053077191913392  0.7487272555278642
  0.9583333333333334  0.6636410525246724  0.8305610447139143
  0.9166666666666667  0.7053077191913392  0.8305610447139143
  0.9583333333333334  0.7053077191913392  0.9123948338999643
  0.9583333333333334  0.7886410525246724  0.0940569420394640
  0.9583333333333334  0.7469743858580058  0.1758907312255140
  0.9583333333333334  0.7053077191913392  0.5850596771557641
  0.9166666666666667  0.6219743858580058  0.8305610447139143
  0.9583333333333334  0.5803077191913392  0.8305610447139143
  0.9583333333333334  0.6219743858580058  0.7487272555278642
  0.9583333333333334  0.5386410525246725  0.5850596771557641
  0.9583333333333334  0.4969743858580058  0.6668934663418142
  0.9166666666666667  0.5386410525246725  0.6668934663418142
  0.9583333333333334  0.5386410525246725  0.7487272555278642
  0.9583333333333334  0.4969743858580058  0.8305610447139143
  0.9166666666666667  0.5386410525246725  0.8305610447139143
  0.9583333333333334  0.5386410525246725  0.9123948338999643
  0.9583333333333334  0.6219743858580058  0.0940569420394640
  0.9583333333333334  0.5803077191913392  0.1758907312255140
  0.9166666666666667  0.6219743858580058  0.1758907312255140
  0.9583333333333334  0.6219743858580058  0.2577245204115640
  0.9583333333333334  0.5803077191913392  0.3395583095976141
  0.9166666666666667  0.6219743858580058  0.3395583095976141
  0.9583333333333334  0.6219743858580058  0.4213920987836641
  0.9583333333333334  0.5803077191913392  0.5032258879697141
  0.9166666666666667  0.6219743858580058  0.5032258879697141
  0.9583333333333334  0.6219743858580058  0.5850596771557641
  0.9583333333333334  0.5803077191913392  0.6668934663418142
  0.9166666666666667  0.6219743858580058  0.6668934663418142
  0.9166666666666667  0.7886410525246724  0.1758907312255140
  0.9166666666666667  0.5386410525246725  0.5032258879697141
  0.9583333333333334  0.7886410525246724  0.2577245204115640
  0.9166666666666667  0.7886410525246724  0.3395583095976141
  0.9583333333333334  0.8303077191913392  0.8305610447139143
  0.9166666666666667  0.8719743858580058  0.8305610447139143
  0.9583333333333334  0.8719743858580058  0.9123948338999643
  0.9583333333333334  0.9553077191913393  0.0940569420394640
  0.9583333333333334  0.9136410525246726  0.1758907312255140
  0.9166666666666667  0.9553077191913393  0.1758907312255140
  0.9583333333333334  0.9553077191913393  0.2577245204115640
  0.9583333333333334  0.9136410525246726  0.3395583095976141
  0.9583333333333334  0.8719743858580058  0.7487272555278642
  0.9166666666666667  0.9553077191913393  0.3395583095976141
  0.9583333333333334  0.9136410525246726  0.5032258879697141
  0.9166666666666667  0.9553077191913393  0.5032258879697141
  0.9583333333333334  0.9553077191913393  0.5850596771557641
  0.9583333333333334  0.9136410525246726  0.6668934663418142
  0.9166666666666667  0.9553077191913393  0.6668934663418142
  0.9583333333333334  0.9553077191913393  0.7487272555278642
  0.9583333333333334  0.9136410525246726  0.8305610447139143
  0.9166666666666667  0.9553077191913393  0.8305610447139143
  0.9583333333333334  0.9553077191913393  0.4213920987836641
  0.9166666666666667  0.8719743858580058  0.6668934663418142
  0.9583333333333334  0.8303077191913392  0.6668934663418142
  0.9583333333333334  0.8719743858580058  0.5850596771557641
  0.9583333333333334  0.7886410525246724  0.4213920987836641
  0.9583333333333334  0.7469743858580058  0.5032258879697141
  0.9166666666666667  0.7886410525246724  0.5032258879697141
  0.9583333333333334  0.7886410525246724  0.5850596771557641
  0.9583333333333334  0.7469743858580058  0.6668934663418142
  0.9166666666666667  0.7886410525246724  0.6668934663418142
  0.9583333333333334  0.7886410525246724  0.7487272555278642
  0.9583333333333334  0.7469743858580058  0.8305610447139143
  0.9166666666666667  0.7886410525246724  0.8305610447139143
  0.9583333333333334  0.7886410525246724  0.9123948338999643
  0.9583333333333334  0.8719743858580058  0.0940569420394640
  0.9583333333333334  0.8303077191913392  0.1758907312255140
  0.9166666666666667  0.8719743858580058  0.1758907312255140
  0.9583333333333334  0.8719743858580058  0.2577245204115640
  0.9583333333333334  0.8303077191913392  0.3395583095976141
  0.9166666666666667  0.8719743858580058  0.3395583095976141
  0.9583333333333334  0.8719743858580058  0.4213920987836641
  0.9583333333333334  0.8303077191913392  0.5032258879697141
  0.9166666666666667  0.8719743858580058  0.5032258879697141
  0.9583333333333334  0.7469743858580058  0.3395583095976141
  0.9583333333333334  0.4969743858580058  0.5032258879697141
  0.9583333333333334  0.5386410525246725  0.4213920987836641
  0.9166666666666667  0.5386410525246725  0.3395583095976141
  0.9154717583210559  0.2083333333333333  0.3423951078691447
  0.9571384249877225  0.2083333333333333  0.4242288970551948
  0.9571384249877225  0.1666666666666667  0.5060626862412448
  0.9154717583210559  0.2083333333333333  0.5060626862412448
  0.9571384249877225  0.2083333333333333  0.5878964754272947
  0.9571384249877225  0.1666666666666667  0.6697302646133447
  0.9154717583210559  0.2083333333333333  0.6697302646133447
  0.9571384249877225  0.2083333333333333  0.7515640537993949
  0.9571384249877225  0.1666666666666667  0.3423951078691447
  0.9571384249877225  0.1666666666666667  0.8333978429854449
  0.9571384249877225  0.2083333333333333  0.9152316321714951
  0.9571384249877225  0.2916666666666666  0.0968937403109946
  0.9571384249877225  0.2500000000000000  0.1787275294970447
  0.9154717583210559  0.2916666666666666  0.1787275294970447
  0.9571384249877225  0.2916666666666666  0.2605613186830947
  0.9571384249877225  0.2500000000000000  0.3423951078691447
  0.9154717583210559  0.2916666666666666  0.3423951078691447
  0.9571384249877225  0.2916666666666666  0.4242288970551948
  0.9154717583210559  0.2083333333333333  0.8333978429854449
  0.9571384249877225  0.2083333333333333  0.2605613186830947
  0.9154717583210559  0.2083333333333333  0.1787275294970447
  0.9571384249877225  0.1666666666666667  0.1787275294970447
  0.9154717583210559  0.0416666666666667  0.8333978429854449
  0.9571384249877225  0.0416666666666667  0.9152316321714951
  0.9571384249877225  0.1250000000000000  0.0968937403109946
  0.9571384249877225  0.0833333333333333  0.1787275294970447
  0.9154717583210559  0.1250000000000000  0.1787275294970447
  0.9571384249877225  0.1250000000000000  0.2605613186830947
  0.9571384249877225  0.0833333333333333  0.3423951078691447
  0.9154717583210559  0.1250000000000000  0.3423951078691447
  0.9571384249877225  0.1250000000000000  0.4242288970551948
  0.9571384249877225  0.0833333333333333  0.5060626862412448
  0.9154717583210559  0.1250000000000000  0.5060626862412448
  0.9571384249877225  0.1250000000000000  0.5878964754272947
  0.9571384249877225  0.0833333333333333  0.6697302646133447
  0.9154717583210559  0.1250000000000000  0.6697302646133447
  0.9571384249877225  0.1250000000000000  0.7515640537993949
  0.9571384249877225  0.0833333333333333  0.8333978429854449
  0.9154717583210559  0.1250000000000000  0.8333978429854449
  0.9571384249877225  0.1250000000000000  0.9152316321714951
  0.9571384249877225  0.2083333333333333  0.0968937403109946
  0.9571384249877225  0.2500000000000000  0.5060626862412448
  0.9154717583210559  0.2916666666666666  0.5060626862412448
  0.9571384249877225  0.2916666666666666  0.5878964754272947
  0.9571384249877225  0.2500000000000000  0.6697302646133447
  0.9154717583210559  0.4583333333333334  0.1787275294970447
  0.9571384249877225  0.4583333333333334  0.2605613186830947
  0.9571384249877225  0.4166666666666666  0.3423951078691447
  0.9154717583210559  0.4583333333333334  0.3423951078691447
  0.9571384249877225  0.4583333333333334  0.4242288970551948
  0.9571384249877225  0.4166666666666666  0.5060626862412448
  0.9154717583210559  0.4583333333333334  0.5060626862412448
  0.9571384249877225  0.4583333333333334  0.5878964754272947
  0.9571384249877225  0.4166666666666666  0.6697302646133447
  0.9154717583210559  0.4583333333333334  0.6697302646133447
  0.9571384249877225  0.4583333333333334  0.7515640537993949
  0.9571384249877225  0.4166666666666666  0.8333978429854449
  0.9154717583210559  0.4583333333333334  0.8333978429854449
  0.9571384249877225  0.4583333333333334  0.9152316321714951
  0.9583333333333334  0.5386410525246725  0.0940569420394640
  0.9583333333333334  0.4969743858580058  0.1758907312255140
  0.9166666666666667  0.5386410525246725  0.1758907312255140
  0.9583333333333334  0.5386410525246725  0.2577245204115640
  0.9583333333333334  0.4969743858580058  0.3395583095976141
  0.9571384249877225  0.4166666666666666  0.1787275294970447
  0.9571384249877225  0.0416666666666667  0.7515640537993949
  0.9571384249877225  0.4583333333333334  0.0968937403109946
  0.9154717583210559  0.3749999999999999  0.8333978429854449
  0.9154717583210559  0.2916666666666666  0.6697302646133447
  0.9571384249877225  0.2916666666666666  0.7515640537993949
  0.9571384249877225  0.2500000000000000  0.8333978429854449
  0.9154717583210559  0.2916666666666666  0.8333978429854449
  0.9571384249877225  0.2916666666666666  0.9152316321714951
  0.9571384249877225  0.3749999999999999  0.0968937403109946
  0.9571384249877225  0.3333333333333333  0.1787275294970447
  0.9154717583210559  0.3749999999999999  0.1787275294970447
  0.9571384249877225  0.3749999999999999  0.2605613186830947
  0.9571384249877225  0.3333333333333333  0.3423951078691447
  0.9154717583210559  0.3749999999999999  0.3423951078691447
  0.9571384249877225  0.3749999999999999  0.4242288970551948
  0.9571384249877225  0.3333333333333333  0.5060626862412448
  0.9154717583210559  0.3749999999999999  0.5060626862412448
  0.9571384249877225  0.3749999999999999  0.5878964754272947
  0.9571384249877225  0.3333333333333333  0.6697302646133447
  0.9154717583210559  0.3749999999999999  0.6697302646133447
  0.9571384249877225  0.3749999999999999  0.7515640537993949
  0.9571384249877225  0.3333333333333333  0.8333978429854449
  0.9571384249877225  0.3749999999999999  0.9152316321714951
  0.3738050916543892  0.4166666666666666  0.6576048921308554
  0.8738050916543891  0.0833333333333333  0.5060626862412448
  0.8321384249877225  0.1250000000000000  0.3423951078691447
  0.7083333333333333  0.8303077191913392  0.1758907312255140
  0.6666666666666666  0.8719743858580058  0.1758907312255140
  0.7083333333333333  0.8719743858580058  0.2577245204115640
  0.7083333333333333  0.8303077191913392  0.3395583095976141
  0.6666666666666666  0.8719743858580058  0.3395583095976141
  0.7083333333333333  0.8719743858580058  0.4213920987836641
  0.7083333333333333  0.8303077191913392  0.5032258879697141
  0.6666666666666666  0.8719743858580058  0.5032258879697141
  0.7083333333333333  0.8719743858580058  0.0940569420394640
  0.7083333333333333  0.8719743858580058  0.5850596771557641
  0.6666666666666666  0.8719743858580058  0.6668934663418142
  0.7083333333333333  0.8719743858580058  0.7487272555278642
  0.7083333333333333  0.8303077191913392  0.8305610447139143
  0.6666666666666666  0.8719743858580058  0.8305610447139143
  0.7083333333333333  0.8719743858580058  0.9123948338999643
  0.7083333333333333  0.9553077191913393  0.0940569420394640
  0.7083333333333333  0.9136410525246726  0.1758907312255140
  0.6666666666666666  0.9553077191913393  0.1758907312255140
  0.7083333333333333  0.8303077191913392  0.6668934663418142
  0.7083333333333333  0.7886410525246724  0.9123948338999643
  0.6666666666666666  0.7886410525246724  0.8305610447139143
  0.7083333333333333  0.7469743858580058  0.8305610447139143
  0.7083333333333333  0.6636410525246724  0.6668934663418142
  0.6666666666666666  0.7053077191913392  0.6668934663418142
  0.7083333333333333  0.7053077191913392  0.7487272555278642
  0.7083333333333333  0.6636410525246724  0.8305610447139143
  0.6666666666666666  0.7053077191913392  0.8305610447139143
  0.7083333333333333  0.7053077191913392  0.9123948338999643
  0.7083333333333333  0.7886410525246724  0.0940569420394640
  0.7083333333333333  0.7469743858580058  0.1758907312255140
  0.6666666666666666  0.7886410525246724  0.1758907312255140
  0.7083333333333333  0.7886410525246724  0.2577245204115640
  0.7083333333333333  0.7469743858580058  0.3395583095976141
  0.6666666666666666  0.7886410525246724  0.3395583095976141
  0.7083333333333333  0.7886410525246724  0.4213920987836641
  0.7083333333333333  0.7469743858580058  0.5032258879697141
  0.6666666666666666  0.7886410525246724  0.5032258879697141
  0.7083333333333333  0.7886410525246724  0.5850596771557641
  0.7083333333333333  0.7469743858580058  0.6668934663418142
  0.6666666666666666  0.7886410525246724  0.6668934663418142
  0.7083333333333333  0.7886410525246724  0.7487272555278642
  0.7083333333333333  0.9553077191913393  0.2577245204115640
  0.7083333333333333  0.7053077191913392  0.5850596771557641
  0.7083333333333333  0.9136410525246726  0.3395583095976141
  0.7083333333333333  0.9553077191913393  0.4213920987836641
  0.7488050916543890  0.0416666666666667  0.8333978429854449
  0.7904717583210557  0.0416666666666667  0.9152316321714951
  0.7904717583210557  0.1250000000000000  0.0968937403109946
  0.7904717583210557  0.0833333333333333  0.1787275294970447
  0.7488050916543890  0.1250000000000000  0.1787275294970447
  0.7904717583210557  0.1250000000000000  0.2605613186830947
  0.7904717583210557  0.0833333333333333  0.3423951078691447
  0.7488050916543890  0.1250000000000000  0.3423951078691447
  0.7904717583210557  0.0000000000000000  0.8333978429854449
  0.7904717583210557  0.1250000000000000  0.4242288970551948
  0.7488050916543890  0.1250000000000000  0.5060626862412448
  0.7904717583210557  0.1250000000000000  0.5878964754272947
  0.7904717583210557  0.0833333333333333  0.6697302646133447
  0.7488050916543890  0.1250000000000000  0.6697302646133447
  0.7904717583210557  0.1250000000000000  0.7515640537993949
  0.7904717583210557  0.0833333333333333  0.8333978429854449
  0.7488050916543890  0.1250000000000000  0.8333978429854449
  0.7904717583210557  0.1250000000000000  0.9152316321714951
  0.7904717583210557  0.0833333333333333  0.5060626862412448
  0.7904717583210557  0.0416666666666667  0.7515640537993949
  0.7488050916543890  0.0416666666666667  0.6697302646133447
  0.7904717583210557  0.0000000000000000  0.6697302646133447
  0.7083333333333333  0.9136410525246726  0.5032258879697141
  0.6666666666666666  0.9553077191913393  0.5032258879697141
  0.7083333333333333  0.9553077191913393  0.5850596771557641
  0.7083333333333333  0.9136410525246726  0.6668934663418142
  0.6666666666666666  0.9553077191913393  0.6668934663418142
  0.7083333333333333  0.9553077191913393  0.7487272555278642
  0.7083333333333333  0.9136410525246726  0.8305610447139143
  0.6666666666666666  0.9553077191913393  0.8305610447139143
  0.7083333333333333  0.9553077191913393  0.9123948338999643
  0.7904717583210557  0.0416666666666667  0.0968937403109946
  0.7904717583210557  0.0000000000000000  0.1787275294970447
  0.7488050916543890  0.0416666666666667  0.1787275294970447
  0.7904717583210557  0.0416666666666667  0.2605613186830947
  0.7904717583210557  0.0000000000000000  0.3423951078691447
  0.7488050916543890  0.0416666666666667  0.3423951078691447
  0.7904717583210557  0.0416666666666667  0.4242288970551948
  0.7904717583210557  0.0000000000000000  0.5060626862412448
  0.7488050916543890  0.0416666666666667  0.5060626862412448
  0.7904717583210557  0.0416666666666667  0.5878964754272947
  0.6666666666666666  0.9553077191913393  0.3395583095976141
  0.6666666666666666  0.7053077191913392  0.5032258879697141
  0.7083333333333333  0.6636410525246724  0.5032258879697141
  0.7083333333333333  0.7053077191913392  0.4213920987836641
  0.7071384249877224  0.3749999999999999  0.4242288970551948
  0.7071384249877224  0.3333333333333333  0.5060626862412448
  0.6654717583210558  0.3749999999999999  0.5060626862412448
  0.7071384249877224  0.3749999999999999  0.5878964754272947
  0.7071384249877224  0.3333333333333333  0.6697302646133447
  0.6654717583210558  0.3749999999999999  0.6697302646133447
  0.7071384249877224  0.3749999999999999  0.7515640537993949
  0.7071384249877224  0.3333333333333333  0.8333978429854449
  0.6654717583210558  0.3749999999999999  0.3423951078691447
  0.6654717583210558  0.3749999999999999  0.8333978429854449
  0.7071384249877224  0.4583333333333334  0.0968937403109946
  0.7071384249877224  0.4166666666666666  0.1787275294970447
  0.6654717583210558  0.4583333333333334  0.1787275294970447
  0.7071384249877224  0.4583333333333334  0.2605613186830947
  0.7071384249877224  0.4166666666666666  0.3423951078691447
  0.6654717583210558  0.4583333333333334  0.3423951078691447
  0.7071384249877224  0.4583333333333334  0.4242288970551948
  0.7071384249877224  0.4166666666666666  0.5060626862412448
  0.7071384249877224  0.3749999999999999  0.9152316321714951
  0.7071384249877224  0.3333333333333333  0.3423951078691447
  0.7071384249877224  0.3749999999999999  0.2605613186830947
  0.6654717583210558  0.3749999999999999  0.1787275294970447
  0.7071384249877224  0.2083333333333333  0.9152316321714951
  0.7071384249877224  0.2916666666666666  0.0968937403109946
  0.7071384249877224  0.2500000000000000  0.1787275294970447
  0.6654717583210558  0.2916666666666666  0.1787275294970447
  0.7071384249877224  0.2916666666666666  0.2605613186830947
  0.7071384249877224  0.2500000000000000  0.3423951078691447
  0.6654717583210558  0.2916666666666666  0.3423951078691447
  0.7071384249877224  0.2916666666666666  0.4242288970551948
  0.7071384249877224  0.2500000000000000  0.5060626862412448
  0.6654717583210558  0.2916666666666666  0.5060626862412448
  0.7071384249877224  0.2916666666666666  0.5878964754272947
  0.7071384249877224  0.2500000000000000  0.6697302646133447
  0.6654717583210558  0.2916666666666666  0.6697302646133447
  0.7071384249877224  0.2916666666666666  0.7515640537993949
  0.7071384249877224  0.2500000000000000  0.8333978429854449
  0.6654717583210558  0.2916666666666666  0.8333978429854449
  0.7071384249877224  0.2916666666666666  0.9152316321714951
  0.7071384249877224  0.3749999999999999  0.0968937403109946
  0.7071384249877224  0.3333333333333333  0.1787275294970447
  0.6654717583210558  0.4583333333333334  0.5060626862412448
  0.7071384249877224  0.4583333333333334  0.5878964754272947
  0.7071384249877224  0.4166666666666666  0.6697302646133447
  0.6654717583210558  0.4583333333333334  0.6697302646133447
  0.7083333333333333  0.6219743858580058  0.2577245204115640
  0.7083333333333333  0.5803077191913392  0.3395583095976141
  0.6666666666666666  0.6219743858580058  0.3395583095976141
  0.7083333333333333  0.6219743858580058  0.4213920987836641
  0.7083333333333333  0.5803077191913392  0.5032258879697141
  0.6666666666666666  0.6219743858580058  0.5032258879697141
  0.7083333333333333  0.6219743858580058  0.5850596771557641
  0.7083333333333333  0.5803077191913392  0.6668934663418142
  0.6666666666666666  0.6219743858580058  0.6668934663418142
  0.7083333333333333  0.6219743858580058  0.7487272555278642
  0.7083333333333333  0.5803077191913392  0.8305610447139143
  0.6666666666666666  0.6219743858580058  0.8305610447139143
  0.7083333333333333  0.6219743858580058  0.9123948338999643
  0.7083333333333333  0.7053077191913392  0.0940569420394640
  0.7083333333333333  0.6636410525246724  0.1758907312255140
  0.6666666666666666  0.7053077191913392  0.1758907312255140
  0.7083333333333333  0.7053077191913392  0.2577245204115640
  0.7083333333333333  0.6636410525246724  0.3395583095976141
  0.6666666666666666  0.7053077191913392  0.3395583095976141
  0.6666666666666666  0.6219743858580058  0.1758907312255140
  0.7904717583210557  0.2083333333333333  0.0968937403109946
  0.7083333333333333  0.5803077191913392  0.1758907312255140
  0.7083333333333333  0.5386410525246725  0.9123948338999643
  0.7071384249877224  0.4583333333333334  0.7515640537993949
  0.7071384249877224  0.4166666666666666  0.8333978429854449
  0.6654717583210558  0.4583333333333334  0.8333978429854449
  0.7071384249877224  0.4583333333333334  0.9152316321714951
  0.7083333333333333  0.5386410525246725  0.0940569420394640
  0.7083333333333333  0.4969743858580058  0.1758907312255140
  0.6666666666666666  0.5386410525246725  0.1758907312255140
  0.7083333333333333  0.5386410525246725  0.2577245204115640
  0.7083333333333333  0.4969743858580058  0.3395583095976141
  0.6666666666666666  0.5386410525246725  0.3395583095976141
  0.7083333333333333  0.5386410525246725  0.4213920987836641
  0.7083333333333333  0.4969743858580058  0.5032258879697141
  0.6666666666666666  0.5386410525246725  0.5032258879697141
  0.7083333333333333  0.5386410525246725  0.5850596771557641
  0.7083333333333333  0.4969743858580058  0.6668934663418142
  0.6666666666666666  0.5386410525246725  0.6668934663418142
  0.7083333333333333  0.5386410525246725  0.7487272555278642
  0.7083333333333333  0.4969743858580058  0.8305610447139143
  0.6666666666666666  0.5386410525246725  0.8305610447139143
  0.7083333333333333  0.6219743858580058  0.0940569420394640
  0.8738050916543891  0.1250000000000000  0.4242288970551948
  0.7904717583210557  0.1666666666666667  0.1787275294970447
  0.7904717583210557  0.2083333333333333  0.2605613186830947
  0.7916666666666665  0.7886410525246724  0.4213920987836641
  0.7916666666666665  0.7469743858580058  0.5032258879697141
  0.7499999999999999  0.7886410525246724  0.5032258879697141
  0.7916666666666665  0.7886410525246724  0.5850596771557641
  0.7916666666666665  0.7469743858580058  0.6668934663418142
  0.7499999999999999  0.7886410525246724  0.6668934663418142
  0.7916666666666665  0.7886410525246724  0.7487272555278642
  0.7916666666666665  0.7469743858580058  0.8305610447139143
  0.7499999999999999  0.7886410525246724  0.3395583095976141
  0.7499999999999999  0.7886410525246724  0.8305610447139143
  0.7916666666666665  0.8719743858580058  0.0940569420394640
  0.7916666666666665  0.8303077191913392  0.1758907312255140
  0.7499999999999999  0.8719743858580058  0.1758907312255140
  0.7916666666666665  0.8719743858580058  0.2577245204115640
  0.7916666666666665  0.8303077191913392  0.3395583095976141
  0.7499999999999999  0.8719743858580058  0.3395583095976141
  0.7916666666666665  0.8719743858580058  0.4213920987836641
  0.7916666666666665  0.8303077191913392  0.5032258879697141
  0.7916666666666665  0.7886410525246724  0.9123948338999643
  0.7916666666666665  0.7469743858580058  0.3395583095976141
  0.7916666666666665  0.7886410525246724  0.2577245204115640
  0.7499999999999999  0.7886410525246724  0.1758907312255140
  0.7916666666666665  0.6219743858580058  0.9123948338999643
  0.7916666666666665  0.7053077191913392  0.0940569420394640
  0.7916666666666665  0.6636410525246724  0.1758907312255140
  0.7499999999999999  0.7053077191913392  0.1758907312255140
  0.7916666666666665  0.7053077191913392  0.2577245204115640
  0.7916666666666665  0.6636410525246724  0.3395583095976141
  0.7499999999999999  0.7053077191913392  0.3395583095976141
  0.7916666666666665  0.7053077191913392  0.4213920987836641
  0.7916666666666665  0.6636410525246724  0.5032258879697141
  0.7499999999999999  0.7053077191913392  0.5032258879697141
  0.7916666666666665  0.7053077191913392  0.5850596771557641
  0.7916666666666665  0.6636410525246724  0.6668934663418142
  0.7499999999999999  0.7053077191913392  0.6668934663418142
  0.7916666666666665  0.7053077191913392  0.7487272555278642
  0.7916666666666665  0.6636410525246724  0.8305610447139143
  0.7499999999999999  0.7053077191913392  0.8305610447139143
  0.7916666666666665  0.7053077191913392  0.9123948338999643
  0.7916666666666665  0.7886410525246724  0.0940569420394640
  0.7916666666666665  0.7469743858580058  0.1758907312255140
  0.7499999999999999  0.8719743858580058  0.5032258879697141
  0.7499999999999999  0.6219743858580058  0.8305610447139143
  0.7916666666666665  0.8719743858580058  0.5850596771557641
  0.7499999999999999  0.8719743858580058  0.6668934663418142
  0.8738050916543891  0.0416666666666667  0.2605613186830947
  0.8738050916543891  0.0000000000000000  0.3423951078691447
  0.8321384249877225  0.0416666666666667  0.3423951078691447
  0.8738050916543891  0.0416666666666667  0.4242288970551948
  0.8738050916543891  0.0000000000000000  0.5060626862412448
  0.8321384249877225  0.0416666666666667  0.5060626862412448
  0.8738050916543891  0.0416666666666667  0.5878964754272947
  0.8738050916543891  0.0000000000000000  0.6697302646133447
  0.8321384249877225  0.0416666666666667  0.1787275294970447
  0.8321384249877225  0.0416666666666667  0.6697302646133447
  0.8738050916543891  0.0000000000000000  0.8333978429854449
  0.8321384249877225  0.0416666666666667  0.8333978429854449
  0.8738050916543891  0.0416666666666667  0.9152316321714951
  0.8738050916543891  0.1250000000000000  0.0968937403109946
  0.8738050916543891  0.0833333333333333  0.1787275294970447
  0.8321384249877225  0.1250000000000000  0.1787275294970447
  0.8738050916543891  0.1250000000000000  0.2605613186830947
  0.8738050916543891  0.0833333333333333  0.3423951078691447
  0.8738050916543891  0.0416666666666667  0.7515640537993949
  0.8738050916543891  0.0000000000000000  0.1787275294970447
  0.8738050916543891  0.0416666666666667  0.0968937403109946
  0.7916666666666665  0.9553077191913393  0.9123948338999643
  0.7916666666666665  0.8719743858580058  0.7487272555278642
  0.7916666666666665  0.8303077191913392  0.8305610447139143
  0.7499999999999999  0.8719743858580058  0.8305610447139143
  0.7916666666666665  0.8719743858580058  0.9123948338999643
  0.7916666666666665  0.9553077191913393  0.0940569420394640
  0.7916666666666665  0.9136410525246726  0.1758907312255140
  0.7499999999999999  0.9553077191913393  0.1758907312255140
  0.7916666666666665  0.9553077191913393  0.2577245204115640
  0.7916666666666665  0.9136410525246726  0.3395583095976141
  0.7499999999999999  0.9553077191913393  0.3395583095976141
  0.7916666666666665  0.9553077191913393  0.4213920987836641
  0.7916666666666665  0.9136410525246726  0.5032258879697141
  0.7499999999999999  0.9553077191913393  0.5032258879697141
  0.7916666666666665  0.9553077191913393  0.5850596771557641
  0.7916666666666665  0.9136410525246726  0.6668934663418142
  0.7499999999999999  0.9553077191913393  0.6668934663418142
  0.7916666666666665  0.9553077191913393  0.7487272555278642
  0.7916666666666665  0.9136410525246726  0.8305610447139143
  0.7499999999999999  0.9553077191913393  0.8305610447139143
  0.7916666666666665  0.8303077191913392  0.6668934663418142
  0.7916666666666665  0.5803077191913392  0.8305610447139143
  0.7916666666666665  0.6219743858580058  0.7487272555278642
  0.7499999999999999  0.6219743858580058  0.6668934663418142
  0.7488050916543890  0.2916666666666666  0.6697302646133447
  0.7904717583210557  0.2916666666666666  0.7515640537993949
  0.7904717583210557  0.2500000000000000  0.8333978429854449
  0.7488050916543890  0.2916666666666666  0.8333978429854449
  0.7904717583210557  0.2916666666666666  0.9152316321714951
  0.7904717583210557  0.3749999999999999  0.0968937403109946
  0.7904717583210557  0.3333333333333333  0.1787275294970447
  0.7488050916543890  0.3749999999999999  0.1787275294970447
  0.7904717583210557  0.2500000000000000  0.6697302646133447
  0.7904717583210557  0.3749999999999999  0.2605613186830947
  0.7488050916543890  0.3749999999999999  0.3423951078691447
  0.7904717583210557  0.3749999999999999  0.4242288970551948
  0.7904717583210557  0.3333333333333333  0.5060626862412448
  0.7488050916543890  0.3749999999999999  0.5060626862412448
  0.7904717583210557  0.3749999999999999  0.5878964754272947
  0.7904717583210557  0.3333333333333333  0.6697302646133447
  0.7488050916543890  0.3749999999999999  0.6697302646133447
  0.7904717583210557  0.3749999999999999  0.7515640537993949
  0.7904717583210557  0.3333333333333333  0.3423951078691447
  0.7904717583210557  0.2916666666666666  0.5878964754272947
  0.7488050916543890  0.2916666666666666  0.5060626862412448
  0.7904717583210557  0.2500000000000000  0.5060626862412448
  0.7904717583210557  0.1666666666666667  0.3423951078691447
  0.7488050916543890  0.2083333333333333  0.3423951078691447
  0.7904717583210557  0.2083333333333333  0.4242288970551948
  0.7904717583210557  0.1666666666666667  0.5060626862412448
  0.7488050916543890  0.2083333333333333  0.5060626862412448
  0.7904717583210557  0.2083333333333333  0.5878964754272947
  0.7904717583210557  0.1666666666666667  0.6697302646133447
  0.7488050916543890  0.2083333333333333  0.6697302646133447
  0.7904717583210557  0.2083333333333333  0.7515640537993949
  0.7904717583210557  0.1666666666666667  0.8333978429854449
  0.7488050916543890  0.2083333333333333  0.8333978429854449
  0.7904717583210557  0.2083333333333333  0.9152316321714951
  0.7904717583210557  0.2916666666666666  0.0968937403109946
  0.7904717583210557  0.2500000000000000  0.1787275294970447
  0.7488050916543890  0.2916666666666666  0.1787275294970447
  0.7904717583210557  0.2916666666666666  0.2605613186830947
  0.7904717583210557  0.2500000000000000  0.3423951078691447
  0.7488050916543890  0.2916666666666666  0.3423951078691447
  0.7904717583210557  0.2916666666666666  0.4242288970551948
  0.7904717583210557  0.3333333333333333  0.8333978429854449
  0.7488050916543890  0.3749999999999999  0.8333978429854449
  0.7904717583210557  0.3749999999999999  0.9152316321714951
  0.7904717583210557  0.4583333333333334  0.0968937403109946
  0.7499999999999999  0.5386410525246725  0.5032258879697141
  0.7916666666666665  0.5386410525246725  0.5850596771557641
  0.7916666666666665  0.4969743858580058  0.6668934663418142
  0.7499999999999999  0.5386410525246725  0.6668934663418142
  0.7916666666666665  0.5386410525246725  0.7487272555278642
  0.7916666666666665  0.4969743858580058  0.8305610447139143
  0.7499999999999999  0.5386410525246725  0.8305610447139143
  0.7916666666666665  0.5386410525246725  0.9123948338999643
  0.7916666666666665  0.6219743858580058  0.0940569420394640
  0.7916666666666665  0.5803077191913392  0.1758907312255140
  0.7499999999999999  0.6219743858580058  0.1758907312255140
  0.7916666666666665  0.6219743858580058  0.2577245204115640
  0.7916666666666665  0.5803077191913392  0.3395583095976141
  0.7499999999999999  0.6219743858580058  0.3395583095976141
  0.7916666666666665  0.6219743858580058  0.4213920987836641
  0.7916666666666665  0.5803077191913392  0.5032258879697141
  0.7499999999999999  0.6219743858580058  0.5032258879697141
  0.7916666666666665  0.6219743858580058  0.5850596771557641
  0.7916666666666665  0.5803077191913392  0.6668934663418142
  0.7916666666666665  0.4969743858580058  0.5032258879697141
  0.7488050916543890  0.2083333333333333  0.1787275294970447
  0.7916666666666665  0.5386410525246725  0.4213920987836641
  0.7916666666666665  0.4969743858580058  0.3395583095976141
  0.7904717583210557  0.4166666666666666  0.1787275294970447
  0.7488050916543890  0.4583333333333334  0.1787275294970447
  0.7904717583210557  0.4583333333333334  0.2605613186830947
  0.7904717583210557  0.4166666666666666  0.3423951078691447
  0.7488050916543890  0.4583333333333334  0.3423951078691447
  0.7904717583210557  0.4583333333333334  0.4242288970551948
  0.7904717583210557  0.4166666666666666  0.5060626862412448
  0.7488050916543890  0.4583333333333334  0.5060626862412448
  0.7904717583210557  0.4583333333333334  0.5878964754272947
  0.7904717583210557  0.4166666666666666  0.6697302646133447
  0.7488050916543890  0.4583333333333334  0.6697302646133447
  0.7904717583210557  0.4583333333333334  0.7515640537993949
  0.7904717583210557  0.4166666666666666  0.8333978429854449
  0.7488050916543890  0.4583333333333334  0.8333978429854449
  0.7904717583210557  0.4583333333333334  0.9152316321714951
  0.7916666666666665  0.5386410525246725  0.0940569420394640
  0.7916666666666665  0.4969743858580058  0.1758907312255140
  0.7499999999999999  0.5386410525246725  0.1758907312255140
  0.7916666666666665  0.5386410525246725  0.2577245204115640
  0.7499999999999999  0.5386410525246725  0.3395583095976141
  0.3738050916543892  0.4583333333333334  0.5757711029448053
  0.9583333333333334  0.9553077191913393  0.9123948338999643
  0.1636410525246725  0.7083333333333333  0.8241092687744861
  0.0404717583210558  0.3749999999999999  0.5757711029448053
  0.2488050916543892  0.1250000000000000  0.8212724705029555
  0.2904717583210558  0.0833333333333333  0.8212724705029555
  0.2904717583210558  0.1250000000000000  0.7394386813169054
  0.0386410525246725  0.7916666666666665  0.4149403228442359
  0.0404717583210558  0.3333333333333333  0.6576048921308554
 -0.0011949083456108  0.3749999999999999  0.6576048921308554
  0.1219743858580058  0.7916666666666665  0.5786079012163360
  0.2488050916543892  0.1250000000000000  0.6576048921308554
  0.1219743858580058  0.7499999999999999  0.6604416904023861
  0.2904717583210558  0.0833333333333333  0.6576048921308554
  0.2904717583210558  0.1250000000000000  0.5757711029448053
  0.0803077191913392  0.7916666666666665  0.6604416904023861
  0.2488050916543892  0.1250000000000000  0.4939373137587553
  0.2904717583210558  0.0833333333333333  0.4939373137587553
  0.1219743858580058  0.7916666666666665  0.7422754795884361
  0.2904717583210558  0.1250000000000000  0.4121035245727053
  0.1219743858580058  0.7499999999999999  0.8241092687744861
  0.0803077191913392  0.7916666666666665  0.8241092687744861
  0.2488050916543892  0.1250000000000000  0.3302697353866553
  0.0404717583210558  0.3749999999999999  0.7394386813169054
  0.2904717583210558  0.0833333333333333  0.3302697353866553
  0.2904717583210558  0.1250000000000000  0.2484359462006052
  0.0404717583210558  0.3333333333333333  0.8212724705029555
  0.1219743858580058  0.7916666666666665  0.9059430579605362
  0.2488050916543892  0.1250000000000000  0.1666021570145552
  0.2904717583210558  0.0833333333333333  0.1666021570145552
  0.0803077191913392  0.7916666666666665  0.4967741120302859
 -0.0030256141419942  0.7916666666666665  0.3331065336581859
  0.2904717583210558  0.1250000000000000  0.9031062596890055
  0.1219743858580058  0.7916666666666665  0.4149403228442359
  0.2488050916543892  0.2083333333333333  0.8212724705029555
  0.1219743858580058  0.7083333333333333  0.9059430579605362
  0.2904717583210558  0.1666666666666667  0.8212724705029555
  0.2904717583210558  0.2083333333333333  0.7394386813169054
  0.1219743858580058  0.7916666666666665  0.0876051661000358
  0.2488050916543892  0.2083333333333333  0.6576048921308554
  0.2904717583210558  0.1666666666666667  0.6576048921308554
  0.1219743858580058  0.7499999999999999  0.1694389552860858
  0.0803077191913392  0.7916666666666665  0.1694389552860858
  0.2904717583210558  0.2083333333333333  0.5757711029448053
  0.0404717583210558  0.3749999999999999  0.4121035245727053
  0.2488050916543892  0.2083333333333333  0.4939373137587553
  0.0404717583210558  0.3333333333333333  0.4939373137587553
  0.2904717583210558  0.1666666666666667  0.4939373137587553
  0.2904717583210558  0.2083333333333333  0.4121035245727053
 -0.0030256141419942  0.7916666666666665  0.4967741120302859
  0.1219743858580058  0.7916666666666665  0.2512727444721359
  0.1219743858580058  0.7499999999999999  0.3331065336581859
  0.2488050916543892  0.2083333333333333  0.3302697353866553
  0.2904717583210558  0.1666666666666667  0.3302697353866553
 -0.0011949083456108  0.3749999999999999  0.4939373137587553
  0.2904717583210558  0.2083333333333333  0.2484359462006052
  0.0803077191913392  0.7916666666666665  0.3331065336581859
  0.0386410525246725  0.7499999999999999  0.4967741120302859
  0.2488050916543892  0.2083333333333333  0.1666021570145552
  0.2904717583210558  0.1666666666666667  0.1666021570145552
  0.2904717583210558  0.2083333333333333  0.0847683678285052
  0.1219743858580058  0.7499999999999999  0.4967741120302859
  0.2904717583210558  0.2083333333333333  0.9031062596890055
  0.0386410525246725  0.7499999999999999  0.3331065336581859
 -0.0011949083456108  0.3749999999999999  0.8212724705029555
  0.2904717583210558  0.0416666666666667  0.0847683678285052
  0.1219743858580058  0.8333333333333333  0.6604416904023861
  0.0803077191913392  0.8749999999999999  0.6604416904023861
  0.2053077191913392  0.9583333333333334  0.9059430579605362
  0.0386410525246725  0.7499999999999999  0.1694389552860858
  0.0386410525246725  0.7916666666666665  0.0876051661000358
  0.1636410525246725  0.9583333333333334  0.8241092687744861
  0.2053077191913392  0.9166666666666667  0.8241092687744861
  0.2053077191913392  0.9583333333333334  0.7422754795884361
  0.1219743858580058  0.8749999999999999  0.7422754795884361
  0.0404717583210558  0.4583333333333334  0.2484359462006052
  0.0404717583210558  0.4166666666666666  0.3302697353866553
  0.1219743858580058  0.8333333333333333  0.8241092687744861
  0.1636410525246725  0.9583333333333334  0.6604416904023861
  0.0803077191913392  0.8749999999999999  0.8241092687744861
  0.2053077191913392  0.9166666666666667  0.6604416904023861
  0.2053077191913392  0.9583333333333334  0.5786079012163360
  0.1219743858580058  0.8749999999999999  0.9059430579605362
 -0.0011949083456108  0.4583333333333334  0.3302697353866553
  0.1636410525246725  0.9583333333333334  0.4967741120302859
  0.2053077191913392  0.9166666666666667  0.4967741120302859
  0.2053077191913392  0.9583333333333334  0.4149403228442359
  0.1219743858580058  0.9583333333333334  0.0876051661000358
  0.1636410525246725  0.9583333333333334  0.3331065336581859
  0.1219743858580058  0.9166666666666667  0.1694389552860858
  0.2053077191913392  0.9166666666666667  0.3331065336581859
  0.2053077191913392  0.9583333333333334  0.2512727444721359
  0.2904717583210558  0.0000000000000000  0.1666021570145552
  0.2904717583210558  0.1250000000000000  0.0847683678285052
  0.1219743858580058  0.8749999999999999  0.5786079012163360
 -0.0011949083456108  0.4583333333333334  0.1666021570145552
  0.1219743858580058  0.8749999999999999  0.0876051661000358
  0.1219743858580058  0.8333333333333333  0.1694389552860858
  0.2904717583210558  0.0416666666666667  0.9031062596890055
  0.0803077191913392  0.8749999999999999  0.1694389552860858
  0.2488050916543892  0.0416666666666667  0.8212724705029555
  0.0386410525246725  0.7916666666666665  0.2512727444721359
  0.0404717583210558  0.3749999999999999  0.9031062596890055
  0.2904717583210558  0.0000000000000000  0.8212724705029555
  0.2904717583210558  0.0416666666666667  0.7394386813169054
  0.1219743858580058  0.8749999999999999  0.2512727444721359
  0.2488050916543892  0.0416666666666667  0.6576048921308554
  0.2904717583210558  0.0000000000000000  0.6576048921308554
  0.2904717583210558  0.0416666666666667  0.5757711029448053
  0.1219743858580058  0.8333333333333333  0.3331065336581859
  0.0803077191913392  0.8749999999999999  0.3331065336581859
  0.2488050916543892  0.0416666666666667  0.4939373137587553
  0.0404717583210558  0.4583333333333334  0.0847683678285052
  0.2904717583210558  0.0000000000000000  0.4939373137587553
  0.2904717583210558  0.0416666666666667  0.4121035245727053
  0.1219743858580058  0.8749999999999999  0.4149403228442359
  0.1219743858580058  0.8333333333333333  0.4967741120302859
 -0.0030256141419942  0.7916666666666665  0.1694389552860858
  0.2488050916543892  0.0416666666666667  0.3302697353866553
  0.2904717583210558  0.0000000000000000  0.3302697353866553
  0.0803077191913392  0.8749999999999999  0.4967741120302859
  0.0404717583210558  0.4166666666666666  0.1666021570145552
  0.2904717583210558  0.0416666666666667  0.2484359462006052
  0.2488050916543892  0.0416666666666667  0.1666021570145552
  0.0404717583210558  0.4583333333333334  0.4121035245727053
 -0.0011949083456108  0.3749999999999999  0.3302697353866553
  0.0404717583210558  0.3333333333333333  0.3302697353866553
  0.1219743858580058  0.5833333333333333  0.3331065336581859
  0.2488050916543892  0.4583333333333334  0.6576048921308554
  0.2904717583210558  0.4166666666666666  0.6576048921308554
  0.2904717583210558  0.4583333333333334  0.5757711029448053
  0.0803077191913392  0.6250000000000000  0.3331065336581859
  0.2488050916543892  0.4583333333333334  0.4939373137587553
  0.0386410525246725  0.8749999999999999  0.0876051661000358
  0.2904717583210558  0.4166666666666666  0.4939373137587553
  0.2904717583210558  0.4583333333333334  0.4121035245727053
  0.1219743858580058  0.6250000000000000  0.4149403228442359
  0.1219743858580058  0.5833333333333333  0.4967741120302859
  0.0803077191913392  0.6250000000000000  0.4967741120302859
  0.0404717583210558  0.2916666666666666  0.5757711029448053
  0.2488050916543892  0.4583333333333334  0.3302697353866553
  0.2904717583210558  0.4166666666666666  0.3302697353866553
  0.2904717583210558  0.4583333333333334  0.2484359462006052
  0.0404717583210558  0.2500000000000000  0.6576048921308554
  0.2488050916543892  0.4583333333333334  0.1666021570145552
  0.1219743858580058  0.6250000000000000  0.5786079012163360
  0.1219743858580058  0.5833333333333333  0.6604416904023861
  0.2904717583210558  0.4166666666666666  0.1666021570145552
  0.2904717583210558  0.4583333333333334  0.0847683678285052
 -0.0011949083456108  0.2916666666666666  0.6576048921308554
  0.0803077191913392  0.6250000000000000  0.6604416904023861
  0.2904717583210558  0.3749999999999999  0.9031062596890055
  0.0386410525246725  0.7916666666666665  0.9059430579605362
  0.2488050916543892  0.3749999999999999  0.8212724705029555
  0.1219743858580058  0.6250000000000000  0.2512727444721359
  0.2904717583210558  0.3333333333333333  0.8212724705029555
  0.0386410525246725  0.8333333333333333  0.1694389552860858
  0.2904717583210558  0.4583333333333334  0.7394386813169054
  0.2886410525246725  0.5416666666666666  0.5786079012163360
  0.0404717583210558  0.2916666666666666  0.2484359462006052
  0.0386410525246725  0.8749999999999999  0.2512727444721359
  0.1219743858580058  0.5416666666666666  0.7422754795884361
  0.0404717583210558  0.2500000000000000  0.3302697353866553
  0.2469743858580058  0.5416666666666666  0.4967741120302859
  0.2886410525246725  0.5000000000000000  0.4967741120302859
  0.2886410525246725  0.5416666666666666  0.4149403228442359
  0.1219743858580058  0.5000000000000000  0.8241092687744861
  0.0803077191913392  0.5416666666666666  0.8241092687744861
  0.2469743858580058  0.5416666666666666  0.3331065336581859
 -0.0011949083456108  0.2916666666666666  0.3302697353866553
  0.2886410525246725  0.5000000000000000  0.3331065336581859
  0.2886410525246725  0.5416666666666666  0.2512727444721359
  0.1219743858580058  0.5416666666666666  0.9059430579605362
  0.2469743858580058  0.5416666666666666  0.1694389552860858
  0.2886410525246725  0.5000000000000000  0.1694389552860858
  0.1219743858580058  0.6250000000000000  0.0876051661000358
  0.2886410525246725  0.5416666666666666  0.0876051661000358
  0.1219743858580058  0.5833333333333333  0.1694389552860858
  0.0803077191913392  0.6250000000000000  0.1694389552860858
  0.2904717583210558  0.4583333333333334  0.9031062596890055
  0.0404717583210558  0.2916666666666666  0.4121035245727053
 -0.0030256141419942  0.8749999999999999  0.1694389552860858
  0.2488050916543892  0.4583333333333334  0.8212724705029555
  0.2904717583210558  0.4166666666666666  0.8212724705029555
  0.0404717583210558  0.2500000000000000  0.4939373137587553
 -0.0011949083456108  0.2916666666666666  0.4939373137587553
  0.0803077191913392  0.7083333333333333  0.8241092687744861
  0.2904717583210558  0.3749999999999999  0.7394386813169054
  0.1219743858580058  0.5833333333333333  0.8241092687744861
  0.2904717583210558  0.2916666666666666  0.7394386813169054
  0.0404717583210558  0.3333333333333333  0.1666021570145552
  0.1219743858580058  0.7083333333333333  0.4149403228442359
  0.1219743858580058  0.6666666666666666  0.4967741120302859
  0.2488050916543892  0.2916666666666666  0.6576048921308554
  0.2904717583210558  0.2500000000000000  0.6576048921308554
  0.2904717583210558  0.2916666666666666  0.5757711029448053
  0.0803077191913392  0.7083333333333333  0.4967741120302859
 -0.0011949083456108  0.3749999999999999  0.1666021570145552
  0.2488050916543892  0.2916666666666666  0.4939373137587553
  0.2904717583210558  0.2500000000000000  0.4939373137587553
  0.1219743858580058  0.7083333333333333  0.5786079012163360
  0.2904717583210558  0.2916666666666666  0.4121035245727053
  0.1219743858580058  0.6666666666666666  0.6604416904023861
  0.0803077191913392  0.7083333333333333  0.6604416904023861
 -0.0030256141419942  0.7916666666666665  0.6604416904023861
  0.2488050916543892  0.2916666666666666  0.3302697353866553
  0.2904717583210558  0.2500000000000000  0.3302697353866553
  0.2904717583210558  0.2916666666666666  0.2484359462006052
  0.0404717583210558  0.3749999999999999  0.2484359462006052
  0.0386410525246725  0.7499999999999999  0.6604416904023861
  0.2488050916543892  0.2916666666666666  0.1666021570145552
  0.1219743858580058  0.7083333333333333  0.7422754795884361
  0.2904717583210558  0.2500000000000000  0.1666021570145552
  0.1219743858580058  0.6666666666666666  0.8241092687744861
  0.0386410525246725  0.7916666666666665  0.5786079012163360
  0.2904717583210558  0.2916666666666666  0.0847683678285052
  0.0404717583210558  0.3749999999999999  0.0847683678285052
  0.1219743858580058  0.6250000000000000  0.7422754795884361
  0.2904717583210558  0.2500000000000000  0.8212724705029555
  0.0386410525246725  0.7916666666666665  0.7422754795884361
  0.0803077191913392  0.6250000000000000  0.8241092687744861
  0.2488050916543892  0.3749999999999999  0.6576048921308554
  0.2904717583210558  0.3333333333333333  0.6576048921308554
  0.0386410525246725  0.5833333333333333  0.6604416904023861
  0.2904717583210558  0.3749999999999999  0.5757711029448053
  0.0404717583210558  0.2500000000000000  0.8212724705029555
  0.1219743858580058  0.6250000000000000  0.9059430579605362
 -0.0011949083456108  0.2916666666666666  0.8212724705029555
  0.2488050916543892  0.3749999999999999  0.4939373137587553
  0.2904717583210558  0.3333333333333333  0.4939373137587553
  0.2904717583210558  0.3749999999999999  0.4121035245727053
 -0.0030256141419942  0.7916666666666665  0.8241092687744861
  0.1219743858580058  0.7083333333333333  0.0876051661000358
  0.2488050916543892  0.3749999999999999  0.3302697353866553
  0.1219743858580058  0.6666666666666666  0.1694389552860858
  0.2904717583210558  0.3333333333333333  0.3302697353866553
  0.0386410525246725  0.7499999999999999  0.8241092687744861
  0.2904717583210558  0.3749999999999999  0.2484359462006052
  0.0404717583210558  0.2916666666666666  0.9031062596890055
  0.0803077191913392  0.7083333333333333  0.1694389552860858
  0.2488050916543892  0.3749999999999999  0.1666021570145552
  0.2904717583210558  0.3333333333333333  0.1666021570145552
  0.2904717583210558  0.3749999999999999  0.0847683678285052
  0.1219743858580058  0.7083333333333333  0.2512727444721359
  0.1219743858580058  0.6666666666666666  0.3331065336581859
  0.2904717583210558  0.2916666666666666  0.9031062596890055
  0.0803077191913392  0.7083333333333333  0.3331065336581859
  0.2488050916543892  0.2916666666666666  0.8212724705029555
  0.0386410525246725  0.8333333333333333  0.3331065336581859
  0.0803077191913392  0.9583333333333334  0.1694389552860858
  0.1636410525246725  0.9583333333333334  0.1694389552860858
  0.2053077191913392  0.5416666666666666  0.4149403228442359
  0.0386410525246725  0.6666666666666666  0.1694389552860858
  0.2071384249877225  0.2083333333333333  0.0847683678285052
  0.1636410525246725  0.5416666666666666  0.3331065336581859
  0.2053077191913392  0.5000000000000000  0.3331065336581859
  0.2053077191913392  0.5416666666666666  0.2512727444721359
  0.2071384249877225  0.1666666666666667  0.1666021570145552
 -0.0030256141419942  0.5416666666666666  0.8241092687744861
  0.1654717583210558  0.2083333333333333  0.1666021570145552
  0.0386410525246725  0.7083333333333333  0.0876051661000358
  0.1636410525246725  0.5416666666666666  0.1694389552860858
  0.2053077191913392  0.5000000000000000  0.1694389552860858
  0.0386410525246725  0.5416666666666666  0.9059430579605362
  0.2053077191913392  0.5416666666666666  0.0876051661000358
  0.2071384249877225  0.2083333333333333  0.2484359462006052
  0.2071384249877225  0.1666666666666667  0.3302697353866553
  0.2071384249877225  0.4583333333333334  0.9031062596890055
  0.1654717583210558  0.2083333333333333  0.3302697353866553
  0.1654717583210558  0.4583333333333334  0.8212724705029555
  0.2071384249877225  0.4166666666666666  0.8212724705029555
  0.2071384249877225  0.4583333333333334  0.7394386813169054
  0.2071384249877225  0.2083333333333333  0.4121035245727053
  0.0386410525246725  0.6250000000000000  0.0876051661000358
  0.2071384249877225  0.1666666666666667  0.4939373137587553
  0.1654717583210558  0.4583333333333334  0.6576048921308554
  0.2071384249877225  0.4166666666666666  0.6576048921308554
  0.1654717583210558  0.2083333333333333  0.4939373137587553
  0.0386410525246725  0.5000000000000000  0.8241092687744861
  0.2071384249877225  0.4583333333333334  0.5757711029448053
 -0.0030256141419942  0.7083333333333333  0.1694389552860858
  0.1636410525246725  0.5416666666666666  0.4967741120302859
  0.2071384249877225  0.0833333333333333  0.4939373137587553
  0.1636410525246725  0.6250000000000000  0.3331065336581859
  0.2053077191913392  0.5833333333333333  0.3331065336581859
  0.1654717583210558  0.1250000000000000  0.4939373137587553
  0.2053077191913392  0.6250000000000000  0.2512727444721359
  0.0386410525246725  0.5416666666666666  0.5786079012163360
  0.0386410525246725  0.7083333333333333  0.2512727444721359
  0.1636410525246725  0.6250000000000000  0.1694389552860858
  0.2053077191913392  0.5833333333333333  0.1694389552860858
  0.2053077191913392  0.6250000000000000  0.0876051661000358
  0.2071384249877225  0.1250000000000000  0.5757711029448053
  0.2071384249877225  0.0833333333333333  0.6576048921308554
  0.0386410525246725  0.5000000000000000  0.6604416904023861
  0.1654717583210558  0.1250000000000000  0.6576048921308554
  0.2053077191913392  0.5416666666666666  0.9059430579605362
 -0.0030256141419942  0.5416666666666666  0.6604416904023861
  0.1636410525246725  0.5416666666666666  0.8241092687744861
  0.2053077191913392  0.5000000000000000  0.8241092687744861
  0.2053077191913392  0.5416666666666666  0.7422754795884361
  0.2071384249877225  0.1250000000000000  0.7394386813169054
  0.2071384249877225  0.0833333333333333  0.8212724705029555
  0.1636410525246725  0.5416666666666666  0.6604416904023861
  0.1654717583210558  0.1250000000000000  0.8212724705029555
  0.2053077191913392  0.5000000000000000  0.6604416904023861
  0.2053077191913392  0.5416666666666666  0.5786079012163360
  0.2071384249877225  0.1250000000000000  0.9031062596890055
  0.0386410525246725  0.5416666666666666  0.7422754795884361
  0.2053077191913392  0.5000000000000000  0.4967741120302859
  0.2071384249877225  0.1250000000000000  0.4121035245727053
  0.0386410525246725  0.6250000000000000  0.9059430579605362
  0.2071384249877225  0.2083333333333333  0.5757711029448053
  0.1654717583210558  0.3749999999999999  0.4939373137587553
  0.2071384249877225  0.3333333333333333  0.4939373137587553
  0.0386410525246725  0.6250000000000000  0.7422754795884361
  0.2071384249877225  0.3749999999999999  0.4121035245727053
  0.0386410525246725  0.6250000000000000  0.4149403228442359
  0.2071384249877225  0.2916666666666666  0.2484359462006052
  0.1654717583210558  0.3749999999999999  0.3302697353866553
  0.2071384249877225  0.2500000000000000  0.3302697353866553
  0.1654717583210558  0.2916666666666666  0.3302697353866553
  0.2071384249877225  0.3333333333333333  0.3302697353866553
  0.2071384249877225  0.3749999999999999  0.2484359462006052
  0.0386410525246725  0.5833333333333333  0.4967741120302859
 -0.0030256141419942  0.6250000000000000  0.4967741120302859
  0.1654717583210558  0.3749999999999999  0.1666021570145552
  0.2071384249877225  0.3333333333333333  0.1666021570145552
  0.2071384249877225  0.3749999999999999  0.0847683678285052
  0.2071384249877225  0.2916666666666666  0.4121035245727053
  0.2071384249877225  0.2500000000000000  0.4939373137587553
 -0.0030256141419942  0.6250000000000000  0.6604416904023861
  0.2071384249877225  0.2916666666666666  0.9031062596890055
  0.1654717583210558  0.2916666666666666  0.4939373137587553
  0.1654717583210558  0.2916666666666666  0.8212724705029555
  0.2071384249877225  0.2500000000000000  0.8212724705029555
  0.2071384249877225  0.2916666666666666  0.7394386813169054
  0.0386410525246725  0.6250000000000000  0.5786079012163360
  0.2071384249877225  0.2916666666666666  0.5757711029448053
  0.2071384249877225  0.2500000000000000  0.6576048921308554
  0.1654717583210558  0.2916666666666666  0.1666021570145552
  0.1654717583210558  0.4583333333333334  0.4939373137587553
  0.2071384249877225  0.2500000000000000  0.1666021570145552
  0.2071384249877225  0.3333333333333333  0.6576048921308554
  0.0386410525246725  0.5833333333333333  0.1694389552860858
  0.2071384249877225  0.4166666666666666  0.4939373137587553
  0.2071384249877225  0.4583333333333334  0.4121035245727053
  0.2071384249877225  0.1666666666666667  0.6576048921308554
 -0.0030256141419942  0.6250000000000000  0.1694389552860858
  0.1654717583210558  0.4583333333333334  0.3302697353866553
  0.2071384249877225  0.4166666666666666  0.3302697353866553
  0.1654717583210558  0.2083333333333333  0.6576048921308554
  0.2071384249877225  0.4583333333333334  0.2484359462006052
  0.2071384249877225  0.2083333333333333  0.7394386813169054
  0.1654717583210558  0.4583333333333334  0.1666021570145552
  0.2071384249877225  0.4166666666666666  0.1666021570145552
  0.2071384249877225  0.4583333333333334  0.0847683678285052
  0.2071384249877225  0.1666666666666667  0.8212724705029555
  0.1654717583210558  0.2083333333333333  0.8212724705029555
 -0.0030256141419942  0.6250000000000000  0.8241092687744861
  0.0386410525246725  0.6250000000000000  0.2512727444721359
  0.2071384249877225  0.3749999999999999  0.9031062596890055
  0.2071384249877225  0.2083333333333333  0.9031062596890055
  0.0386410525246725  0.5833333333333333  0.3331065336581859
  0.1654717583210558  0.3749999999999999  0.8212724705029555
  0.2071384249877225  0.3333333333333333  0.8212724705029555
  0.2071384249877225  0.3749999999999999  0.7394386813169054
 -0.0030256141419942  0.6250000000000000  0.3331065336581859
  0.0386410525246725  0.5833333333333333  0.8241092687744861
  0.1654717583210558  0.3749999999999999  0.6576048921308554
  0.2071384249877225  0.2916666666666666  0.0847683678285052
  0.2071384249877225  0.3749999999999999  0.5757711029448053
  0.0386410525246725  0.7083333333333333  0.9059430579605362
  0.0386410525246725  0.6666666666666666  0.3331065336581859
  0.2053077191913392  0.5833333333333333  0.4967741120302859
 -0.0011949083456108  0.4583333333333334  0.6576048921308554
  0.1636410525246725  0.8749999999999999  0.1694389552860858
  0.1219743858580058  0.9583333333333334  0.7422754795884361
  0.2053077191913392  0.8333333333333333  0.1694389552860858
  0.2053077191913392  0.8749999999999999  0.0876051661000358
  0.1219743858580058  0.9166666666666667  0.8241092687744861
  0.0803077191913392  0.9583333333333334  0.8241092687744861
  0.2053077191913392  0.7916666666666665  0.9059430579605362
  0.1219743858580058  0.9583333333333334  0.9059430579605362
  0.0404717583210558  0.4583333333333334  0.7394386813169054
  0.1636410525246725  0.7916666666666665  0.8241092687744861
  0.2053077191913392  0.7499999999999999  0.8241092687744861
  0.2053077191913392  0.7916666666666665  0.7422754795884361
  0.0404717583210558  0.4166666666666666  0.8212724705029555
 -0.0011949083456108  0.4583333333333334  0.8212724705029555
 -0.0030256141419942  0.7083333333333333  0.6604416904023861
  0.1636410525246725  0.7916666666666665  0.6604416904023861
  0.2053077191913392  0.7499999999999999  0.6604416904023861
  0.2071384249877225  0.0416666666666667  0.0847683678285052
  0.2053077191913392  0.7916666666666665  0.5786079012163360
  0.2071384249877225  0.0000000000000000  0.1666021570145552
  0.1654717583210558  0.0416666666666667  0.1666021570145552
  0.0386410525246725  0.6666666666666666  0.6604416904023861
  0.1636410525246725  0.7916666666666665  0.4967741120302859
  0.2053077191913392  0.7499999999999999  0.4967741120302859
  0.2053077191913392  0.7916666666666665  0.4149403228442359
  0.0404717583210558  0.4583333333333334  0.9031062596890055
  0.0803077191913392  0.9583333333333334  0.6604416904023861
  0.2071384249877225  0.0416666666666667  0.2484359462006052
  0.2053077191913392  0.8749999999999999  0.2512727444721359
  0.1636410525246725  0.8749999999999999  0.3331065336581859
  0.2053077191913392  0.9166666666666667  0.1694389552860858
  0.2053077191913392  0.9583333333333334  0.0876051661000358
  0.0404717583210558  0.4166666666666666  0.4939373137587553
  0.1219743858580058  0.9583333333333334  0.2512727444721359
  0.1219743858580058  0.9166666666666667  0.3331065336581859
  0.2053077191913392  0.8749999999999999  0.9059430579605362
  0.0803077191913392  0.9583333333333334  0.3331065336581859
 -0.0011949083456108  0.4583333333333334  0.4939373137587553
  0.1636410525246725  0.8749999999999999  0.8241092687744861
  0.2053077191913392  0.8333333333333333  0.8241092687744861
  0.2053077191913392  0.8749999999999999  0.7422754795884361
 -0.0030256141419942  0.7083333333333333  0.8241092687744861
  0.1219743858580058  0.9583333333333334  0.4149403228442359
  0.1636410525246725  0.8749999999999999  0.6604416904023861
  0.2053077191913392  0.8333333333333333  0.6604416904023861
  0.2053077191913392  0.8749999999999999  0.5786079012163360
  0.1219743858580058  0.9166666666666667  0.4967741120302859
  0.0803077191913392  0.9583333333333334  0.4967741120302859
  0.0404717583210558  0.4583333333333334  0.5757711029448053
  0.1636410525246725  0.8749999999999999  0.4967741120302859
  0.0404717583210558  0.4166666666666666  0.6576048921308554
  0.2053077191913392  0.8333333333333333  0.4967741120302859
  0.2053077191913392  0.8749999999999999  0.4149403228442359
  0.0386410525246725  0.6666666666666666  0.8241092687744861
  0.1219743858580058  0.9583333333333334  0.5786079012163360
  0.1219743858580058  0.9166666666666667  0.6604416904023861
  0.0386410525246725  0.7083333333333333  0.7422754795884361
  0.2053077191913392  0.8333333333333333  0.3331065336581859
  0.2053077191913392  0.6250000000000000  0.4149403228442359
  0.1636410525246725  0.7916666666666665  0.3331065336581859
  0.2053077191913392  0.7499999999999999  0.3331065336581859
  0.1636410525246725  0.7083333333333333  0.3331065336581859
  0.2053077191913392  0.6666666666666666  0.3331065336581859
  0.2053077191913392  0.7083333333333333  0.2512727444721359
  0.0386410525246725  0.5000000000000000  0.3331065336581859
 -0.0030256141419942  0.5416666666666666  0.3331065336581859
  0.2071384249877225  0.0416666666666667  0.9031062596890055
  0.1636410525246725  0.7083333333333333  0.1694389552860858
  0.2053077191913392  0.6666666666666666  0.1694389552860858
  0.2053077191913392  0.7083333333333333  0.0876051661000358
  0.2071384249877225  0.1250000000000000  0.0847683678285052
  0.2071384249877225  0.0833333333333333  0.1666021570145552
  0.1654717583210558  0.1250000000000000  0.1666021570145552
  0.2053077191913392  0.6250000000000000  0.9059430579605362
  0.1636410525246725  0.6250000000000000  0.8241092687744861
 -0.0030256141419942  0.7083333333333333  0.3331065336581859
  0.2053077191913392  0.5833333333333333  0.8241092687744861
  0.2053077191913392  0.6250000000000000  0.7422754795884361
  0.0386410525246725  0.5416666666666666  0.4149403228442359
  0.0386410525246725  0.5000000000000000  0.4967741120302859
  0.2071384249877225  0.1250000000000000  0.2484359462006052
  0.1636410525246725  0.6250000000000000  0.6604416904023861
  0.2053077191913392  0.5833333333333333  0.6604416904023861
  0.2071384249877225  0.0833333333333333  0.3302697353866553
  0.1654717583210558  0.1250000000000000  0.3302697353866553
  0.2053077191913392  0.6250000000000000  0.5786079012163360
 -0.0030256141419942  0.5416666666666666  0.4967741120302859
  0.1636410525246725  0.6250000000000000  0.4967741120302859
  0.1654717583210558  0.0416666666666667  0.8212724705029555
  0.2071384249877225  0.0000000000000000  0.3302697353866553
  0.0386410525246725  0.7083333333333333  0.4149403228442359
  0.0386410525246725  0.5416666666666666  0.2512727444721359
  0.2053077191913392  0.7916666666666665  0.2512727444721359
  0.1654717583210558  0.0416666666666667  0.3302697353866553
  0.0386410525246725  0.7083333333333333  0.5786079012163360
  0.1636410525246725  0.7916666666666665  0.1694389552860858
  0.2053077191913392  0.7499999999999999  0.1694389552860858
  0.2053077191913392  0.7916666666666665  0.0876051661000358
  0.2071384249877225  0.0416666666666667  0.4121035245727053
  0.2071384249877225  0.0000000000000000  0.4939373137587553
  0.0386410525246725  0.5416666666666666  0.0876051661000358
  0.1654717583210558  0.0416666666666667  0.4939373137587553
  0.2053077191913392  0.7083333333333333  0.9059430579605362
  0.0386410525246725  0.5000000000000000  0.1694389552860858
  0.2053077191913392  0.6666666666666666  0.8241092687744861
 -0.0030256141419942  0.5416666666666666  0.1694389552860858
  0.2053077191913392  0.7083333333333333  0.7422754795884361
  0.2071384249877225  0.0416666666666667  0.5757711029448053
  0.2071384249877225  0.0000000000000000  0.6576048921308554
  0.1654717583210558  0.0416666666666667  0.6576048921308554
  0.1636410525246725  0.7083333333333333  0.6604416904023861
  0.2053077191913392  0.6666666666666666  0.6604416904023861
  0.2053077191913392  0.7083333333333333  0.5786079012163360
 -0.0030256141419942  0.7083333333333333  0.4967741120302859
  0.0386410525246725  0.6666666666666666  0.4967741120302859
  0.2071384249877225  0.0416666666666667  0.7394386813169054
  0.1636410525246725  0.7083333333333333  0.4967741120302859
  0.2053077191913392  0.6666666666666666  0.4967741120302859
  0.2071384249877225  0.0000000000000000  0.8212724705029555
  0.2053077191913392  0.7083333333333333  0.4149403228442359
  0.0803077191913392  0.5416666666666666  0.6604416904023861
  0.0404717583210558  0.2916666666666666  0.7394386813169054
  0.2469743858580058  0.5416666666666666  0.6604416904023861
 -0.0011949083456108  0.1250000000000000  0.3302697353866553
  0.1238050916543892  0.1666666666666667  0.8212724705029555
  0.0821384249877225  0.2083333333333333  0.8212724705029555
  0.3738050916543892  0.0416666666666667  0.9031062596890055
  0.1238050916543892  0.2083333333333333  0.9031062596890055
  0.3321384249877225  0.0416666666666667  0.8212724705029555
  0.3738050916543892  0.0000000000000000  0.8212724705029555
  0.3738050916543892  0.0416666666666667  0.7394386813169054
  0.1238050916543892  0.2916666666666666  0.0847683678285052
  0.3321384249877225  0.0416666666666667  0.6576048921308554
  0.1238050916543892  0.2500000000000000  0.1666021570145552
  0.0404717583210558  0.1250000000000000  0.4121035245727053
  0.3738050916543892  0.0000000000000000  0.6576048921308554
  0.3738050916543892  0.0416666666666667  0.5757711029448053
  0.0404717583210558  0.0833333333333333  0.4939373137587553
  0.0821384249877225  0.2916666666666666  0.1666021570145552
 -0.0030256141419942  0.9583333333333334  0.3331065336581859
 -0.0011949083456108  0.1250000000000000  0.4939373137587553
  0.3321384249877225  0.0416666666666667  0.4939373137587553
  0.3738050916543892  0.0000000000000000  0.4939373137587553
  0.3738050916543892  0.0416666666666667  0.4121035245727053
  0.0386410525246725  0.9166666666666667  0.3331065336581859
  0.1238050916543892  0.2916666666666666  0.2484359462006052
  0.3321384249877225  0.0416666666666667  0.3302697353866553
  0.1238050916543892  0.2500000000000000  0.3302697353866553
  0.3738050916543892  0.1250000000000000  0.0847683678285052
  0.3738050916543892  0.0833333333333333  0.1666021570145552
  0.1238050916543892  0.2083333333333333  0.7394386813169054
  0.3321384249877225  0.1250000000000000  0.1666021570145552
  0.3738050916543892  0.1250000000000000  0.9031062596890055
  0.3321384249877225  0.1250000000000000  0.8212724705029555
  0.0404717583210558  0.0833333333333333  0.1666021570145552
  0.3738050916543892  0.0833333333333333  0.8212724705029555
  0.3738050916543892  0.1250000000000000  0.7394386813169054
 -0.0011949083456108  0.1250000000000000  0.1666021570145552
  0.1238050916543892  0.2083333333333333  0.4121035245727053
 -0.0030256141419942  0.9583333333333334  0.4967741120302859
  0.3321384249877225  0.1250000000000000  0.6576048921308554
  0.3738050916543892  0.0833333333333333  0.6576048921308554
  0.3738050916543892  0.1250000000000000  0.5757711029448053
  0.1238050916543892  0.1666666666666667  0.4939373137587553
  0.3738050916543892  0.0000000000000000  0.3302697353866553
  0.0821384249877225  0.2083333333333333  0.4939373137587553
  0.1238050916543892  0.2083333333333333  0.5757711029448053
  0.3738050916543892  0.0833333333333333  0.4939373137587553
  0.3738050916543892  0.1250000000000000  0.4121035245727053
  0.1238050916543892  0.1666666666666667  0.6576048921308554
  0.0386410525246725  0.9166666666666667  0.4967741120302859
  0.0404717583210558  0.1250000000000000  0.2484359462006052
  0.3321384249877225  0.1250000000000000  0.3302697353866553
  0.3738050916543892  0.0833333333333333  0.3302697353866553
  0.0821384249877225  0.2083333333333333  0.6576048921308554
  0.0404717583210558  0.0833333333333333  0.3302697353866553
  0.3738050916543892  0.1250000000000000  0.2484359462006052
  0.0386410525246725  0.9583333333333334  0.4149403228442359
  0.3321384249877225  0.1250000000000000  0.4939373137587553
  0.3738050916543892  0.0416666666666667  0.2484359462006052
  0.0821384249877225  0.2916666666666666  0.3302697353866553
  0.0404717583210558  0.1250000000000000  0.5757711029448053
  0.2886410525246725  0.9166666666666667  0.3331065336581859
  0.2886410525246725  0.9583333333333334  0.2512727444721359
 -0.0011949083456108  0.1250000000000000  0.8212724705029555
  0.1238050916543892  0.2916666666666666  0.9031062596890055
  0.0386410525246725  0.9166666666666667  0.1694389552860858
  0.2469743858580058  0.9583333333333334  0.1694389552860858
  0.2886410525246725  0.9166666666666667  0.1694389552860858
  0.2886410525246725  0.9583333333333334  0.0876051661000358
  0.0386410525246725  0.9583333333333334  0.0876051661000358
  0.0404717583210558  0.1250000000000000  0.9031062596890055
  0.1238050916543892  0.3749999999999999  0.0847683678285052
  0.2886410525246725  0.8749999999999999  0.9059430579605362
  0.2469743858580058  0.9583333333333334  0.3331065336581859
  0.1238050916543892  0.3333333333333333  0.1666021570145552
  0.2469743858580058  0.8749999999999999  0.8241092687744861
  0.2886410525246725  0.8333333333333333  0.8241092687744861
  0.2886410525246725  0.8749999999999999  0.7422754795884361
  0.1238050916543892  0.3749999999999999  0.2484359462006052
  0.1238050916543892  0.3333333333333333  0.3302697353866553
  0.2469743858580058  0.8749999999999999  0.6604416904023861
  0.2886410525246725  0.8333333333333333  0.6604416904023861
  0.0821384249877225  0.3749999999999999  0.3302697353866553
  0.2886410525246725  0.8749999999999999  0.5786079012163360
  0.0404717583210558  0.2083333333333333  0.0847683678285052
  0.0404717583210558  0.1666666666666667  0.1666021570145552
  0.2469743858580058  0.8749999999999999  0.4967741120302859
  0.0821384249877225  0.3749999999999999  0.1666021570145552
  0.0404717583210558  0.1250000000000000  0.0847683678285052
  0.0404717583210558  0.0833333333333333  0.8212724705029555
  0.1238050916543892  0.2500000000000000  0.8212724705029555
  0.0386410525246725  0.9583333333333334  0.2512727444721359
  0.3321384249877225  0.0416666666666667  0.1666021570145552
  0.3738050916543892  0.0000000000000000  0.1666021570145552
  0.2886410525246725  0.5000000000000000  0.6604416904023861
  0.3738050916543892  0.0416666666666667  0.0847683678285052
  0.1238050916543892  0.2916666666666666  0.4121035245727053
  0.1238050916543892  0.2500000000000000  0.4939373137587553
  0.2886410525246725  0.9583333333333334  0.9059430579605362
  0.0821384249877225  0.2916666666666666  0.4939373137587553
  0.0404717583210558  0.0833333333333333  0.6576048921308554
  0.2469743858580058  0.9583333333333334  0.8241092687744861
  0.2886410525246725  0.9166666666666667  0.8241092687744861
  0.0821384249877225  0.2916666666666666  0.8212724705029555
 -0.0011949083456108  0.1250000000000000  0.6576048921308554
  0.1238050916543892  0.2916666666666666  0.5757711029448053
  0.1238050916543892  0.2500000000000000  0.6576048921308554
  0.2469743858580058  0.9583333333333334  0.6604416904023861
  0.2886410525246725  0.9166666666666667  0.6604416904023861
  0.2886410525246725  0.9583333333333334  0.5786079012163360
  0.0821384249877225  0.2916666666666666  0.6576048921308554
 -0.0030256141419942  0.9583333333333334  0.1694389552860858
  0.2469743858580058  0.9583333333333334  0.4967741120302859
  0.1238050916543892  0.2916666666666666  0.7394386813169054
  0.2886410525246725  0.9166666666666667  0.4967741120302859
  0.2886410525246725  0.9583333333333334  0.4149403228442359
  0.0404717583210558  0.1250000000000000  0.7394386813169054
  0.2886410525246725  0.9583333333333334  0.7422754795884361
  0.2886410525246725  0.8333333333333333  0.4967741120302859
  0.0821384249877225  0.2083333333333333  0.3302697353866553
  0.1238050916543892  0.2083333333333333  0.2484359462006052
  0.3738050916543892  0.3333333333333333  0.6576048921308554
  0.3738050916543892  0.3749999999999999  0.5757711029448053
  0.0404717583210558  0.0000000000000000  0.3302697353866553
 -0.0011949083456108  0.0416666666666667  0.3302697353866553
  0.3321384249877225  0.3749999999999999  0.4939373137587553
  0.3738050916543892  0.3333333333333333  0.4939373137587553
  0.1238050916543892  0.0416666666666667  0.7394386813169054
  0.3738050916543892  0.3749999999999999  0.4121035245727053
  0.1238050916543892  0.0000000000000000  0.8212724705029555
  0.0821384249877225  0.0416666666666667  0.8212724705029555
  0.3321384249877225  0.3749999999999999  0.3302697353866553
  0.3738050916543892  0.3333333333333333  0.3302697353866553
  0.3738050916543892  0.3749999999999999  0.2484359462006052
  0.1238050916543892  0.0416666666666667  0.9031062596890055
  0.0404717583210558  0.0416666666666667  0.4121035245727053
  0.3321384249877225  0.3749999999999999  0.1666021570145552
  0.3738050916543892  0.3333333333333333  0.1666021570145552
  0.0386410525246725  0.9583333333333334  0.9059430579605362
  0.3738050916543892  0.3749999999999999  0.0847683678285052
  0.1238050916543892  0.1250000000000000  0.0847683678285052
  0.1238050916543892  0.0833333333333333  0.1666021570145552
  0.0821384249877225  0.1250000000000000  0.1666021570145552
  0.0404717583210558  0.0000000000000000  0.4939373137587553
  0.3738050916543892  0.2916666666666666  0.9031062596890055
  0.3321384249877225  0.2916666666666666  0.8212724705029555
  0.0404717583210558  0.0416666666666667  0.2484359462006052
  0.0821384249877225  0.0416666666666667  0.6576048921308554
  0.3321384249877225  0.3749999999999999  0.6576048921308554
  0.1238050916543892  0.0416666666666667  0.0847683678285052
  0.3321384249877225  0.4583333333333334  0.4939373137587553
  0.3738050916543892  0.4166666666666666  0.4939373137587553
  0.3738050916543892  0.4583333333333334  0.4121035245727053
  0.1238050916543892  0.0416666666666667  0.2484359462006052
  0.1238050916543892  0.0000000000000000  0.3302697353866553
  0.0404717583210558  0.0416666666666667  0.0847683678285052
  0.3321384249877225  0.4583333333333334  0.3302697353866553
  0.3738050916543892  0.4166666666666666  0.3302697353866553
  0.0821384249877225  0.0416666666666667  0.3302697353866553
  0.0404717583210558  0.0000000000000000  0.1666021570145552
  0.3738050916543892  0.4583333333333334  0.2484359462006052
  0.0821384249877225  0.0416666666666667  0.1666021570145552
 -0.0011949083456108  0.0416666666666667  0.4939373137587553
  0.1238050916543892  0.0000000000000000  0.1666021570145552
  0.3738050916543892  0.4166666666666666  0.1666021570145552
  0.3738050916543892  0.4583333333333334  0.0847683678285052
  0.1238050916543892  0.0416666666666667  0.4121035245727053
 -0.0011949083456108  0.0416666666666667  0.1666021570145552
  0.1238050916543892  0.0000000000000000  0.4939373137587553
  0.3738050916543892  0.3749999999999999  0.9031062596890055
  0.0821384249877225  0.0416666666666667  0.4939373137587553
  0.3321384249877225  0.3749999999999999  0.8212724705029555
  0.3738050916543892  0.3333333333333333  0.8212724705029555
  0.1238050916543892  0.0416666666666667  0.5757711029448053
  0.3738050916543892  0.3749999999999999  0.7394386813169054
  0.1238050916543892  0.0000000000000000  0.6576048921308554
  0.3321384249877225  0.4583333333333334  0.1666021570145552
  0.3738050916543892  0.2500000000000000  0.8212724705029555
  0.3738050916543892  0.2916666666666666  0.7394386813169054
 -0.0030256141419942  0.9583333333333334  0.8241092687744861
  0.3738050916543892  0.2083333333333333  0.7394386813169054
  0.1238050916543892  0.1250000000000000  0.7394386813169054
  0.1238050916543892  0.0833333333333333  0.8212724705029555
  0.3321384249877225  0.2083333333333333  0.6576048921308554
  0.0821384249877225  0.1250000000000000  0.8212724705029555
  0.0404717583210558  0.0000000000000000  0.8212724705029555
  0.3738050916543892  0.1666666666666667  0.6576048921308554
  0.3738050916543892  0.2083333333333333  0.5757711029448053
 -0.0011949083456108  0.0416666666666667  0.8212724705029555
  0.1238050916543892  0.1250000000000000  0.9031062596890055
 -0.0030256141419942  0.9583333333333334  0.6604416904023861
  0.3321384249877225  0.2083333333333333  0.4939373137587553
  0.3738050916543892  0.1666666666666667  0.8212724705029555
  0.3738050916543892  0.1666666666666667  0.4939373137587553
  0.0386410525246725  0.9166666666666667  0.6604416904023861
  0.1238050916543892  0.2083333333333333  0.0847683678285052
  0.0386410525246725  0.9583333333333334  0.5786079012163360
  0.3321384249877225  0.2083333333333333  0.3302697353866553
  0.0404717583210558  0.0416666666666667  0.9031062596890055
  0.3738050916543892  0.1666666666666667  0.3302697353866553
  0.3738050916543892  0.2083333333333333  0.2484359462006052
  0.1238050916543892  0.1666666666666667  0.1666021570145552
  0.0821384249877225  0.2083333333333333  0.1666021570145552
  0.3321384249877225  0.2083333333333333  0.1666021570145552
  0.3738050916543892  0.1666666666666667  0.1666021570145552
  0.3738050916543892  0.2083333333333333  0.0847683678285052
  0.3738050916543892  0.2083333333333333  0.4121035245727053
  0.1238050916543892  0.1666666666666667  0.3302697353866553
  0.3321384249877225  0.2083333333333333  0.8212724705029555
  0.3738050916543892  0.2083333333333333  0.9031062596890055
  0.1238050916543892  0.1250000000000000  0.2484359462006052
  0.3321384249877225  0.2916666666666666  0.6576048921308554
  0.3738050916543892  0.2500000000000000  0.6576048921308554
  0.1238050916543892  0.0833333333333333  0.3302697353866553
  0.3738050916543892  0.2916666666666666  0.5757711029448053
  0.0821384249877225  0.1250000000000000  0.3302697353866553
  0.0386410525246725  0.9166666666666667  0.8241092687744861
  0.3321384249877225  0.2916666666666666  0.4939373137587553
  0.3738050916543892  0.2500000000000000  0.4939373137587553
  0.3738050916543892  0.2916666666666666  0.4121035245727053
  0.0404717583210558  0.0416666666666667  0.5757711029448053
  0.1238050916543892  0.1250000000000000  0.4121035245727053
  0.0404717583210558  0.0416666666666667  0.7394386813169054
  0.0404717583210558  0.0000000000000000  0.6576048921308554
  0.3321384249877225  0.2916666666666666  0.3302697353866553
  0.3738050916543892  0.2500000000000000  0.3302697353866553
 -0.0011949083456108  0.0416666666666667  0.6576048921308554
  0.3738050916543892  0.2916666666666666  0.2484359462006052
  0.0821384249877225  0.1250000000000000  0.4939373137587553
  0.0386410525246725  0.9583333333333334  0.7422754795884361
  0.3321384249877225  0.2916666666666666  0.1666021570145552
  0.3738050916543892  0.2500000000000000  0.1666021570145552
  0.3738050916543892  0.2916666666666666  0.0847683678285052
  0.1238050916543892  0.1250000000000000  0.5757711029448053
  0.1238050916543892  0.0833333333333333  0.6576048921308554
  0.0821384249877225  0.1250000000000000  0.6576048921308554
  0.1238050916543892  0.0833333333333333  0.4939373137587553
  0.2886410525246725  0.8749999999999999  0.4149403228442359
  0.1654717583210558  0.2916666666666666  0.6576048921308554
  0.0386410525246725  0.8749999999999999  0.9059430579605362
  0.2469743858580058  0.7916666666666665  0.3331065336581859
  0.2886410525246725  0.7499999999999999  0.3331065336581859
  0.2886410525246725  0.7916666666666665  0.2512727444721359
  0.0821384249877225  0.4583333333333334  0.1666021570145552
  0.0404717583210558  0.1666666666666667  0.4939373137587553
  0.0404717583210558  0.2083333333333333  0.9031062596890055
  0.0386410525246725  0.8749999999999999  0.4149403228442359
  0.2469743858580058  0.7916666666666665  0.1694389552860858
  0.1219743858580058  0.5000000000000000  0.1694389552860858
  0.2886410525246725  0.6250000000000000  0.5786079012163360
  0.2886410525246725  0.5833333333333333  0.6604416904023861
  0.1219743858580058  0.5416666666666666  0.0876051661000358
  0.0386410525246725  0.8333333333333333  0.4967741120302859
  0.2886410525246725  0.7499999999999999  0.1694389552860858
  0.2886410525246725  0.7916666666666665  0.0876051661000358
 -0.0011949083456108  0.2083333333333333  0.4939373137587553
 -0.0030256141419942  0.8749999999999999  0.6604416904023861
  0.0404717583210558  0.2083333333333333  0.4121035245727053
  0.2469743858580058  0.6250000000000000  0.6604416904023861
  0.2469743858580058  0.6250000000000000  0.4967741120302859
  0.0821384249877225  0.4583333333333334  0.6576048921308554
  0.0803077191913392  0.5416666666666666  0.3331065336581859
  0.2886410525246725  0.6250000000000000  0.2512727444721359
  0.2886410525246725  0.7499999999999999  0.6604416904023861
  0.2886410525246725  0.7916666666666665  0.5786079012163360
  0.1238050916543892  0.3333333333333333  0.8212724705029555
  0.0821384249877225  0.3749999999999999  0.8212724705029555
  0.2886410525246725  0.5833333333333333  0.3331065336581859
  0.2469743858580058  0.6250000000000000  0.3331065336581859
  0.1219743858580058  0.5000000000000000  0.3331065336581859
  0.1219743858580058  0.5416666666666666  0.2512727444721359
  0.2469743858580058  0.7916666666666665  0.4967741120302859
  0.2886410525246725  0.7499999999999999  0.4967741120302859
  0.2886410525246725  0.6250000000000000  0.4149403228442359
  0.1238050916543892  0.3749999999999999  0.9031062596890055
  0.0803077191913392  0.5416666666666666  0.1694389552860858
  0.2886410525246725  0.7916666666666665  0.4149403228442359
  0.2886410525246725  0.5833333333333333  0.4967741120302859
  0.1238050916543892  0.4166666666666666  0.1666021570145552
  0.2469743858580058  0.7916666666666665  0.6604416904023861
  0.1238050916543892  0.4583333333333334  0.2484359462006052
 -0.0030256141419942  0.8749999999999999  0.4967741120302859
  0.0821384249877225  0.4583333333333334  0.4939373137587553
  0.1238050916543892  0.4166666666666666  0.8212724705029555
  0.1238050916543892  0.4583333333333334  0.7394386813169054
 -0.0011949083456108  0.2083333333333333  0.6576048921308554
  0.2469743858580058  0.7083333333333333  0.4967741120302859
  0.2886410525246725  0.7083333333333333  0.0876051661000358
  0.2886410525246725  0.6666666666666666  0.4967741120302859
  0.2886410525246725  0.7083333333333333  0.4149403228442359
  0.2886410525246725  0.6666666666666666  0.1694389552860858
  0.0386410525246725  0.8749999999999999  0.5786079012163360
  0.2469743858580058  0.7083333333333333  0.1694389552860858
  0.1238050916543892  0.4583333333333334  0.5757711029448053
  0.1238050916543892  0.4166666666666666  0.6576048921308554
  0.2469743858580058  0.7083333333333333  0.3331065336581859
  0.0404717583210558  0.2083333333333333  0.7394386813169054
  0.2886410525246725  0.7083333333333333  0.2512727444721359
  0.2886410525246725  0.6666666666666666  0.3331065336581859
  0.0821384249877225  0.4583333333333334  0.8212724705029555
  0.1238050916543892  0.4166666666666666  0.3302697353866553
  0.0404717583210558  0.1666666666666667  0.6576048921308554
  0.0404717583210558  0.2083333333333333  0.5757711029448053
  0.2886410525246725  0.7083333333333333  0.9059430579605362
 -0.0011949083456108  0.2083333333333333  0.8212724705029555
  0.2469743858580058  0.7083333333333333  0.8241092687744861
  0.0821384249877225  0.4583333333333334  0.3302697353866553
  0.2886410525246725  0.6250000000000000  0.7422754795884361
  0.1238050916543892  0.4583333333333334  0.9031062596890055
  0.2886410525246725  0.5833333333333333  0.8241092687744861
  0.2886410525246725  0.6666666666666666  0.8241092687744861
  0.2469743858580058  0.6250000000000000  0.8241092687744861
  0.2886410525246725  0.7083333333333333  0.7422754795884361
  0.0386410525246725  0.8333333333333333  0.6604416904023861
  0.1238050916543892  0.4583333333333334  0.4121035245727053
  0.0404717583210558  0.1666666666666667  0.8212724705029555
  0.2469743858580058  0.7083333333333333  0.6604416904023861
  0.2886410525246725  0.6666666666666666  0.6604416904023861
  0.2886410525246725  0.6250000000000000  0.9059430579605362
  0.1238050916543892  0.4166666666666666  0.4939373137587553
  0.2886410525246725  0.7083333333333333  0.5786079012163360
  0.0404717583210558  0.2916666666666666  0.0847683678285052
  0.1238050916543892  0.4583333333333334  0.0847683678285052
  0.2886410525246725  0.5000000000000000  0.8241092687744861
  0.2886410525246725  0.5833333333333333  0.1694389552860858
  0.2469743858580058  0.8749999999999999  0.3331065336581859
  0.1238050916543892  0.3333333333333333  0.4939373137587553
  0.2469743858580058  0.7916666666666665  0.8241092687744861
 -0.0011949083456108  0.2083333333333333  0.1666021570145552
  0.1219743858580058  0.5416666666666666  0.4149403228442359
  0.0404717583210558  0.2083333333333333  0.2484359462006052
  0.2886410525246725  0.6250000000000000  0.0876051661000358
  0.0803077191913392  0.5416666666666666  0.4967741120302859
  0.2886410525246725  0.8333333333333333  0.3331065336581859
  0.2886410525246725  0.8749999999999999  0.2512727444721359
  0.2886410525246725  0.7916666666666665  0.9059430579605362
 -0.0030256141419942  0.8749999999999999  0.8241092687744861
  0.0821384249877225  0.3749999999999999  0.4939373137587553
  0.0821384249877225  0.3749999999999999  0.6576048921308554
  0.1238050916543892  0.3333333333333333  0.6576048921308554
  0.0404717583210558  0.2500000000000000  0.1666021570145552
  0.1238050916543892  0.3749999999999999  0.5757711029448053
  0.2886410525246725  0.8749999999999999  0.0876051661000358
  0.1219743858580058  0.5000000000000000  0.4967741120302859
  0.2469743858580058  0.5416666666666666  0.8241092687744861
 -0.0030256141419942  0.8749999999999999  0.3331065336581859
  0.2469743858580058  0.8749999999999999  0.1694389552860858
  0.2886410525246725  0.8333333333333333  0.1694389552860858
 -0.0011949083456108  0.2916666666666666  0.1666021570145552
  0.2886410525246725  0.5416666666666666  0.7422754795884361
  0.2886410525246725  0.7499999999999999  0.8241092687744861
  0.2886410525246725  0.5416666666666666  0.9059430579605362
  0.1219743858580058  0.5416666666666666  0.5786079012163360
  0.2469743858580058  0.6250000000000000  0.1694389552860858
  0.0386410525246725  0.8333333333333333  0.8241092687744861
  0.0386410525246725  0.8749999999999999  0.7422754795884361
 -0.0011949083456108  0.2083333333333333  0.3302697353866553
  0.2886410525246725  0.7916666666666665  0.7422754795884361
  0.0404717583210558  0.1666666666666667  0.3302697353866553
  0.1219743858580058  0.5000000000000000  0.6604416904023861
  0.1238050916543892  0.3749999999999999  0.4121035245727053
  0.1238050916543892  0.3749999999999999  0.7394386813169054
  0.7523637481682072  0.3333333333333333  0.2425055255648265
  0.8356970815015407  0.0000000000000000  0.5698406823090266
  0.6690304148348739  0.0833333333333333  0.7335082606811266
  0.1690304148348740  0.0833333333333333  0.7574944744351737
  0.0856970815015406  0.4166666666666666  0.9211620528072738
  0.0893185537999164  0.5000000000000000  0.7518827664388783
  0.7523637481682072  0.1666666666666667  0.7335082606811266
  0.8333333333333333  0.7559852204665829  0.9027875470495221
  0.0059852204665831  0.5833333333333333  0.7518827664388783
  0.0856970815015406  0.0000000000000000  0.4301593176909735
  0.7523637481682072  0.1666666666666667  0.4061731039369266
  0.0059852204665831  0.6666666666666666  0.2608800313225781
  0.8356970815015407  0.0833333333333333  0.2425055255648265
  0.0059852204665831  0.8333333333333333  0.0972124529504781
  0.8333333333333333  0.8393185537999163  0.2481172335611218
  0.6690304148348739  0.3333333333333333  0.4061731039369266
  0.0059852204665831  0.8333333333333333  0.5882151880667783
  0.1690304148348740  0.2500000000000000  0.4301593176909735
  0.7523637481682072  0.3333333333333333  0.7335082606811266
  0.8356970815015407  0.2500000000000000  0.0788379471927264
  0.0893185537999164  0.6666666666666666  0.0972124529504781
  0.7523637481682072  0.3333333333333333  0.4061731039369266
  0.1690304148348740  0.0833333333333333  0.9211620528072738
  0.0893185537999164  0.5000000000000000  0.9155503448109784
  0.0893185537999164  0.5000000000000000  0.0972124529504781
  0.8333333333333333  0.5059852204665830  0.2481172335611218
  0.7499999999999999  0.5059852204665830  0.0844496551890217
  0.0856970815015406  0.0833333333333333  0.5938268960630735
  0.8333333333333333  0.5059852204665830  0.5754523903053219
  0.0856970815015406  0.0000000000000000  0.2664917393188734
  0.1690304148348740  0.2500000000000000  0.5938268960630735
  0.8333333333333333  0.8393185537999163  0.0844496551890217
  0.6690304148348739  0.4166666666666666  0.0788379471927264
  0.7523637481682072  0.4166666666666666  0.8971758390532267
  0.6690304148348739  0.0833333333333333  0.5698406823090266
  0.8356970815015407  0.0000000000000000  0.7335082606811266
  0.0059852204665831  0.9166666666666667  0.7518827664388783
  0.8356970815015407  0.3333333333333333  0.2425055255648265
  0.6690304148348739  0.3333333333333333  0.8971758390532267
  0.0856970815015406  0.0833333333333333  0.7574944744351737
  0.7523637481682072  0.3333333333333333  0.5698406823090266
  0.8356970815015407  0.2500000000000000  0.2425055255648265
  0.8333333333333333  0.9226518871332497  0.0844496551890217
  0.6690304148348739  0.0833333333333333  0.4061731039369266
  0.1690304148348740  0.0833333333333333  0.5938268960630735
  0.0893185537999164  0.5833333333333333  0.9155503448109784
  0.1690304148348740  0.0833333333333333  0.4301593176909735
  0.6690304148348739  0.3333333333333333  0.2425055255648265
  0.0893185537999164  0.5000000000000000  0.5882151880667783
  0.6690304148348739  0.3333333333333333  0.7335082606811266
  0.8356970815015407  0.0000000000000000  0.8971758390532267
  0.7523637481682072  0.1666666666666667  0.5698406823090266
  0.8333333333333333  0.5893185537999164  0.2481172335611218
  0.8333333333333333  0.8393185537999163  0.9027875470495221
  0.6690304148348739  0.4166666666666666  0.2425055255648265
  0.7523637481682072  0.4166666666666666  0.7335082606811266
  0.8356970815015407  0.0833333333333333  0.0788379471927264
  0.0893185537999164  0.5833333333333333  0.7518827664388783
  0.6690304148348739  0.3333333333333333  0.5698406823090266
  0.0856970815015406  0.0000000000000000  0.7574944744351737
  0.7523637481682072  0.2500000000000000  0.0788379471927264
  0.7523637481682072  0.1666666666666667  0.8971758390532267
  0.8333333333333333  0.5059852204665830  0.4117848119332218
  0.0059852204665831  0.8333333333333333  0.2608800313225781
  0.8356970815015407  0.1666666666666667  0.5698406823090266
  0.8333333333333333  0.8393185537999163  0.5754523903053219
  0.1690304148348740  0.1666666666666667  0.5938268960630735
  0.1690304148348740  0.2500000000000000  0.1028241609467734
  0.0856970815015406  0.0000000000000000  0.9211620528072738
  0.6690304148348739  0.2500000000000000  0.2425055255648265
  0.0893185537999164  0.5000000000000000  0.2608800313225781
  0.8356970815015407  0.1666666666666667  0.0788379471927264
  0.8333333333333333  0.5059852204665830  0.9027875470495221
  0.8356970815015407  0.0833333333333333  0.8971758390532267
  0.7523637481682072  0.2500000000000000  0.4061731039369266
  0.0059852204665831  0.8333333333333333  0.4245476096946781
  0.0856970815015406  0.0833333333333333  0.1028241609467734
  0.7523637481682072  0.4166666666666666  0.2425055255648265
  0.7523637481682072  0.2500000000000000  0.7335082606811266
  0.6690304148348739  0.2500000000000000  0.0788379471927264
  0.7523637481682072  0.4166666666666666  0.0788379471927264
  0.0856970815015406  0.0000000000000000  0.1028241609467734
  0.6690304148348739  0.1666666666666667  0.5698406823090266
  0.0893185537999164  0.5000000000000000  0.4245476096946781
  0.8356970815015407  0.1666666666666667  0.4061731039369266
  0.6690304148348739  0.1666666666666667  0.7335082606811266
  0.1690304148348740  0.1666666666666667  0.9211620528072738
  0.3356970815015407  0.4166666666666666  0.5938268960630735
  0.0059852204665831  0.5833333333333333  0.9155503448109784
  0.7523637481682072  0.3333333333333333  0.8971758390532267
  0.7523637481682072  0.2500000000000000  0.5698406823090266
  0.1690304148348740  0.1666666666666667  0.7574944744351737
  0.8356970815015407  0.2500000000000000  0.7335082606811266
  0.6690304148348739  0.1666666666666667  0.8971758390532267
  0.8356970815015407  0.1666666666666667  0.2425055255648265
  0.6690304148348739  0.1666666666666667  0.4061731039369266
  0.6690304148348739  0.2500000000000000  0.4061731039369266
  0.0893185537999164  0.5833333333333333  0.4245476096946781
  0.8333333333333333  0.8393185537999163  0.7391199686774220
  0.0856970815015406  0.0000000000000000  0.5938268960630735
  0.8356970815015407  0.0833333333333333  0.5698406823090266
  0.7523637481682072  0.3333333333333333  0.0788379471927264
  0.6690304148348739  0.1666666666666667  0.0788379471927264
  0.6690304148348739  0.2500000000000000  0.8971758390532267
  0.8356970815015407  0.1666666666666667  0.8971758390532267
  0.7523637481682072  0.4166666666666666  0.5698406823090266
  0.6690304148348739  0.3333333333333333  0.0788379471927264
  0.0893185537999164  0.5833333333333333  0.2608800313225781
  0.0856970815015406  0.0833333333333333  0.4301593176909735
  0.6690304148348739  0.0833333333333333  0.8971758390532267
  0.0893185537999164  0.5833333333333333  0.5882151880667783
  0.8356970815015407  0.0833333333333333  0.4061731039369266
  0.8356970815015407  0.3333333333333333  0.0788379471927264
  0.1690304148348740  0.1666666666666667  0.1028241609467734
  0.8356970815015407  0.2500000000000000  0.8971758390532267
  0.8333333333333333  0.5059852204665830  0.7391199686774220
  0.1690304148348740  0.1666666666666667  0.2664917393188734
  0.0856970815015406  0.0833333333333333  0.2664917393188734
  0.0059852204665831  0.6666666666666666  0.0972124529504781
  0.8356970815015407  0.1666666666666667  0.7335082606811266
  0.0893185537999164  0.5833333333333333  0.0972124529504781
  0.7523637481682072  0.2500000000000000  0.8971758390532267
  0.6690304148348739  0.1666666666666667  0.2425055255648265
  0.1690304148348740  0.1666666666666667  0.4301593176909735
  0.7523637481682072  0.4166666666666666  0.4061731039369266
  0.8356970815015407  0.2500000000000000  0.5698406823090266
  0.0059852204665831  0.9166666666666667  0.9155503448109784
  0.6690304148348739  0.2500000000000000  0.5698406823090266
  0.8333333333333333  0.5893185537999164  0.0844496551890217
  0.8356970815015407  0.0833333333333333  0.7335082606811266
  0.8333333333333333  0.8393185537999163  0.4117848119332218
  0.7523637481682072  0.2500000000000000  0.2425055255648265
  0.6690304148348739  0.2500000000000000  0.7335082606811266
  0.1690304148348740  0.2500000000000000  0.2664917393188734
  0.6690304148348739  0.4166666666666666  0.4061731039369266
  0.6666666666666666  0.5059852204665830  0.2481172335611218
  0.0856970815015406  0.4166666666666666  0.7574944744351737
  0.0893185537999164  0.7499999999999999  0.2608800313225781
  0.0059852204665831  0.7499999999999999  0.5882151880667783
  0.7499999999999999  0.7559852204665829  0.7391199686774220
  0.6666666666666666  0.7559852204665829  0.2481172335611218
  0.8333333333333333  0.6726518871332497  0.7391199686774220
  0.7523637481682072  0.0000000000000000  0.2425055255648265
  0.0893185537999164  0.8333333333333333  0.9155503448109784
  0.0856970815015406  0.2500000000000000  0.5938268960630735
  0.7499999999999999  0.5893185537999164  0.5754523903053219
  0.6666666666666666  0.7559852204665829  0.4117848119332218
  0.0059852204665831  0.9166666666666667  0.2608800313225781
  0.7499999999999999  0.7559852204665829  0.5754523903053219
  0.8333333333333333  0.5893185537999164  0.9027875470495221
  0.0856970815015406  0.2500000000000000  0.7574944744351737
  0.6666666666666666  0.7559852204665829  0.5754523903053219
  0.7499999999999999  0.7559852204665829  0.4117848119332218
  0.0893185537999164  0.8333333333333333  0.7518827664388783
  0.7523637481682072  0.0000000000000000  0.0788379471927264
  0.8356970815015407  0.4166666666666666  0.2425055255648265
  0.0893185537999164  0.9166666666666667  0.0972124529504781
  0.0059852204665831  0.7499999999999999  0.0972124529504781
  0.6666666666666666  0.7559852204665829  0.0844496551890217
  0.6666666666666666  0.6726518871332497  0.9027875470495221
  0.0893185537999164  0.6666666666666666  0.9155503448109784
  0.0856970815015406  0.4166666666666666  0.1028241609467734
  0.0893185537999164  0.9166666666666667  0.4245476096946781
  0.6666666666666666  0.6726518871332497  0.5754523903053219
  0.8356970815015407  0.3333333333333333  0.8971758390532267
  0.8333333333333333  0.6726518871332497  0.9027875470495221
  0.7499999999999999  0.8393185537999163  0.2481172335611218
  0.8333333333333333  0.5893185537999164  0.7391199686774220
  0.7523637481682072  0.0000000000000000  0.5698406823090266
  0.6666666666666666  0.7559852204665829  0.7391199686774220
  0.0856970815015406  0.2500000000000000  0.4301593176909735
  0.6666666666666666  0.6726518871332497  0.7391199686774220
  0.0059852204665831  0.6666666666666666  0.9155503448109784
  0.7499999999999999  0.5893185537999164  0.4117848119332218
  0.7523637481682072  0.0000000000000000  0.4061731039369266
  0.8356970815015407  0.4166666666666666  0.7335082606811266
  0.0856970815015406  0.3333333333333333  0.9211620528072738
  0.7499999999999999  0.8393185537999163  0.0844496551890217
  0.8356970815015407  0.4166666666666666  0.0788379471927264
  0.7499999999999999  0.7559852204665829  0.9027875470495221
  0.0893185537999164  0.7499999999999999  0.0972124529504781
  0.0856970815015406  0.2500000000000000  0.2664917393188734
  0.0856970815015406  0.3333333333333333  0.7574944744351737
  0.6666666666666666  0.9226518871332497  0.9027875470495221
  0.7499999999999999  0.6726518871332497  0.7391199686774220
  0.0856970815015406  0.3333333333333333  0.5938268960630735
  0.0856970815015406  0.3333333333333333  0.2664917393188734
  0.6666666666666666  0.8393185537999163  0.7391199686774220
  0.8356970815015407  0.4166666666666666  0.4061731039369266
  0.7499999999999999  0.6726518871332497  0.5754523903053219
  0.6666666666666666  0.9226518871332497  0.4117848119332218
  0.0893185537999164  0.8333333333333333  0.0972124529504781
  0.7499999999999999  0.6726518871332497  0.2481172335611218
  0.6666666666666666  0.8393185537999163  0.9027875470495221
  0.0059852204665831  0.9166666666666667  0.0972124529504781
  0.0059852204665831  0.8333333333333333  0.9155503448109784
  0.0893185537999164  0.7499999999999999  0.7518827664388783
  0.7499999999999999  0.6726518871332497  0.4117848119332218
  0.0893185537999164  0.7499999999999999  0.9155503448109784
  0.0856970815015406  0.3333333333333333  0.4301593176909735
  0.6666666666666666  0.9226518871332497  0.0844496551890217
  0.0059852204665831  0.7499999999999999  0.4245476096946781
  0.8333333333333333  0.6726518871332497  0.2481172335611218
  0.8356970815015407  0.4166666666666666  0.5698406823090266
  0.7499999999999999  0.6726518871332497  0.0844496551890217
  0.7499999999999999  0.5893185537999164  0.9027875470495221
  0.6666666666666666  0.8393185537999163  0.5754523903053219
  0.0893185537999164  0.8333333333333333  0.5882151880667783
  0.6666666666666666  0.7559852204665829  0.9027875470495221
  0.0893185537999164  0.7499999999999999  0.4245476096946781
  0.7499999999999999  0.7559852204665829  0.2481172335611218
  0.7499999999999999  0.5893185537999164  0.7391199686774220
  0.6666666666666666  0.8393185537999163  0.0844496551890217
  0.0856970815015406  0.2500000000000000  0.9211620528072738
  0.8333333333333333  0.6726518871332497  0.0844496551890217
  0.6666666666666666  0.9226518871332497  0.7391199686774220
  0.8333333333333333  0.6726518871332497  0.5754523903053219
  0.0059852204665831  0.7499999999999999  0.2608800313225781
  0.6666666666666666  0.8393185537999163  0.2481172335611218
  0.0893185537999164  0.8333333333333333  0.4245476096946781
  0.0856970815015406  0.3333333333333333  0.1028241609467734
  0.0893185537999164  0.7499999999999999  0.5882151880667783
  0.7499999999999999  0.6726518871332497  0.9027875470495221
  0.6666666666666666  0.9226518871332497  0.5754523903053219
  0.6666666666666666  0.8393185537999163  0.4117848119332218
  0.8333333333333333  0.6726518871332497  0.4117848119332218
  0.0893185537999164  0.8333333333333333  0.2608800313225781
  0.7499999999999999  0.7559852204665829  0.0844496551890217
  0.0856970815015406  0.0833333333333333  0.9211620528072738
  0.8333333333333333  0.7559852204665829  0.0844496551890217
  0.7499999999999999  0.5893185537999164  0.2481172335611218
  0.6666666666666666  0.9226518871332497  0.2481172335611218
  0.1690304148348740  0.0000000000000000  0.7574944744351737
  0.8333333333333333  0.5893185537999164  0.4117848119332218
  0.7499999999999999  0.9226518871332497  0.7391199686774220
  0.7523637481682072  0.0833333333333333  0.7335082606811266
  0.0856970815015406  0.1666666666666667  0.4301593176909735
  0.6666666666666666  0.5059852204665830  0.4117848119332218
  0.8333333333333333  0.7559852204665829  0.5754523903053219
  0.0893185537999164  0.6666666666666666  0.4245476096946781
  0.1690304148348740  0.0000000000000000  0.5938268960630735
  0.6666666666666666  0.5059852204665830  0.5754523903053219
  0.0059852204665831  0.9166666666666667  0.5882151880667783
  0.0059852204665831  0.6666666666666666  0.5882151880667783
  0.7499999999999999  0.9226518871332497  0.5754523903053219
  0.7523637481682072  0.0833333333333333  0.5698406823090266
  0.7499999999999999  0.5059852204665830  0.5754523903053219
  0.8333333333333333  0.5059852204665830  0.0844496551890217
  0.6666666666666666  0.5059852204665830  0.7391199686774220
  0.0856970815015406  0.1666666666666667  0.5938268960630735
  0.7499999999999999  0.5059852204665830  0.4117848119332218
  0.0893185537999164  0.6666666666666666  0.2608800313225781
  0.7499999999999999  0.9226518871332497  0.9027875470495221
  0.8356970815015407  0.0000000000000000  0.0788379471927264
  0.0059852204665831  0.6666666666666666  0.4245476096946781
  0.0059852204665831  0.7499999999999999  0.9155503448109784
  0.1690304148348740  0.0833333333333333  0.2664917393188734
  0.8356970815015407  0.0000000000000000  0.4061731039369266
  0.0856970815015406  0.1666666666666667  0.1028241609467734
  0.6690304148348739  0.4166666666666666  0.5698406823090266
  0.7523637481682072  0.1666666666666667  0.2425055255648265
  0.6690304148348739  0.4166666666666666  0.7335082606811266
  0.7499999999999999  0.5059852204665830  0.2481172335611218
  0.1690304148348740  0.0000000000000000  0.4301593176909735
  0.8333333333333333  0.7559852204665829  0.7391199686774220
  0.8356970815015407  0.0000000000000000  0.2425055255648265
  0.0856970815015406  0.4166666666666666  0.5938268960630735
  0.1690304148348740  0.0000000000000000  0.9211620528072738
  0.7523637481682072  0.1666666666666667  0.0788379471927264
  0.6690304148348739  0.4166666666666666  0.8971758390532267
  0.0856970815015406  0.1666666666666667  0.2664917393188734
  0.6666666666666666  0.5059852204665830  0.0844496551890217
  0.8356970815015407  0.3333333333333333  0.4061731039369266
  0.7523637481682072  0.0833333333333333  0.8971758390532267
  0.1690304148348740  0.0833333333333333  0.1028241609467734
  0.6666666666666666  0.6726518871332497  0.4117848119332218
  0.8356970815015407  0.3333333333333333  0.5698406823090266
  0.7499999999999999  0.9226518871332497  0.4117848119332218
  0.6666666666666666  0.5893185537999164  0.7391199686774220
  0.8356970815015407  0.3333333333333333  0.7335082606811266
  0.7499999999999999  0.8393185537999163  0.7391199686774220
  0.8333333333333333  0.7559852204665829  0.2481172335611218
  0.0856970815015406  0.4166666666666666  0.2664917393188734
  0.0893185537999164  0.9166666666666667  0.7518827664388783
  0.6666666666666666  0.5893185537999164  0.9027875470495221
  0.0893185537999164  0.6666666666666666  0.7518827664388783
  0.7499999999999999  0.5893185537999164  0.0844496551890217
  0.0856970815015406  0.2500000000000000  0.1028241609467734
  0.0059852204665831  0.9166666666666667  0.4245476096946781
  0.7499999999999999  0.8393185537999163  0.5754523903053219
  0.6666666666666666  0.6726518871332497  0.0844496551890217
  0.7523637481682072  0.0000000000000000  0.8971758390532267
  0.0059852204665831  0.8333333333333333  0.7518827664388783
  0.6666666666666666  0.6726518871332497  0.2481172335611218
  0.0893185537999164  0.9166666666666667  0.5882151880667783
  0.7499999999999999  0.8393185537999163  0.4117848119332218
  0.7523637481682072  0.0000000000000000  0.7335082606811266
  0.7499999999999999  0.5059852204665830  0.9027875470495221
  0.0856970815015406  0.1666666666666667  0.9211620528072738
  0.0893185537999164  0.9166666666666667  0.9155503448109784
  0.7523637481682072  0.0833333333333333  0.0788379471927264
  0.6666666666666666  0.5893185537999164  0.0844496551890217
  0.0856970815015406  0.4166666666666666  0.4301593176909735
  0.0059852204665831  0.7499999999999999  0.7518827664388783
  0.7523637481682072  0.0833333333333333  0.4061731039369266
  0.8333333333333333  0.7559852204665829  0.4117848119332218
  0.1690304148348740  0.0000000000000000  0.2664917393188734
  0.7499999999999999  0.9226518871332497  0.2481172335611218
  0.6666666666666666  0.5893185537999164  0.2481172335611218
  0.7499999999999999  0.5059852204665830  0.7391199686774220
  0.6666666666666666  0.5059852204665830  0.9027875470495221
  0.0893185537999164  0.6666666666666666  0.5882151880667783
  0.8356970815015407  0.4166666666666666  0.8971758390532267
  0.6666666666666666  0.5893185537999164  0.4117848119332218
  0.0856970815015406  0.1666666666666667  0.7574944744351737
  0.7499999999999999  0.9226518871332497  0.0844496551890217
  0.7523637481682072  0.0833333333333333  0.2425055255648265
  0.0059852204665831  0.6666666666666666  0.7518827664388783
  0.1690304148348740  0.0000000000000000  0.1028241609467734
  0.7499999999999999  0.8393185537999163  0.9027875470495221
  0.6666666666666666  0.5893185537999164  0.5754523903053219
  0.8333333333333333  0.5893185537999164  0.5754523903053219
  0.0893185537999164  0.9166666666666667  0.2608800313225781
  0.0023637481682073  0.0000000000000000  0.1028241609467734
  0.1690304148348740  0.2500000000000000  0.7574944744351737
  0.2559852204665830  0.5833333333333333  0.5882151880667783
  0.4226518871332497  0.8333333333333333  0.4245476096946781
  0.9166666666666667  0.5893185537999164  0.0844496551890217
  0.4226518871332497  0.8333333333333333  0.2608800313225781
  0.2559852204665830  0.5833333333333333  0.7518827664388783
  0.0023637481682073  0.1666666666666667  0.9211620528072738
  0.4226518871332497  0.8333333333333333  0.0972124529504781
  0.4226518871332497  0.7499999999999999  0.9155503448109784
  0.2559852204665830  0.5833333333333333  0.9155503448109784
  0.4226518871332497  0.7499999999999999  0.7518827664388783
  0.2559852204665830  0.6666666666666666  0.0972124529504781
  0.9166666666666667  0.5893185537999164  0.2481172335611218
  0.4226518871332497  0.7499999999999999  0.5882151880667783
  0.4226518871332497  0.7499999999999999  0.4245476096946781
  0.2559852204665830  0.6666666666666666  0.2608800313225781
  0.4226518871332497  0.8333333333333333  0.5882151880667783
  0.0023637481682073  0.1666666666666667  0.7574944744351737
  0.9166666666666667  0.5059852204665830  0.9027875470495221
  0.2559852204665830  0.5833333333333333  0.4245476096946781
  0.4226518871332497  0.9166666666666667  0.9155503448109784
  0.2559852204665830  0.5000000000000000  0.7518827664388783
  0.9166666666666667  0.5059852204665830  0.5754523903053219
  0.4226518871332497  0.9166666666666667  0.7518827664388783
  0.0023637481682073  0.2500000000000000  0.2664917393188734
  0.4226518871332497  0.9166666666666667  0.5882151880667783
  0.2559852204665830  0.5000000000000000  0.9155503448109784
  0.4226518871332497  0.9166666666666667  0.4245476096946781
  0.2559852204665830  0.5833333333333333  0.0972124529504781
  0.9166666666666667  0.5059852204665830  0.7391199686774220
  0.4226518871332497  0.9166666666666667  0.2608800313225781
  0.2559852204665830  0.5833333333333333  0.2608800313225781
  0.4226518871332497  0.9166666666666667  0.0972124529504781
  0.4226518871332497  0.8333333333333333  0.9155503448109784
  0.4226518871332497  0.8333333333333333  0.7518827664388783
  0.0023637481682073  0.2500000000000000  0.1028241609467734
  0.9166666666666667  0.9226518871332497  0.9027875470495221
  0.4226518871332497  0.7499999999999999  0.2608800313225781
  0.9166666666666667  0.5893185537999164  0.4117848119332218
  0.2559852204665830  0.7499999999999999  0.4245476096946781
  0.9166666666666667  0.5893185537999164  0.9027875470495221
  0.4226518871332497  0.5833333333333333  0.2608800313225781
  0.2559852204665830  0.7499999999999999  0.5882151880667783
  0.0023637481682073  0.1666666666666667  0.4301593176909735
  0.4226518871332497  0.5833333333333333  0.0972124529504781
  0.9166666666666667  0.6726518871332497  0.0844496551890217
  0.4226518871332497  0.5000000000000000  0.9155503448109784
  0.4226518871332497  0.5000000000000000  0.7518827664388783
  0.2559852204665830  0.7499999999999999  0.7518827664388783
  0.4226518871332497  0.5000000000000000  0.5882151880667783
  0.2559852204665830  0.7499999999999999  0.9155503448109784
  0.4226518871332497  0.5000000000000000  0.4245476096946781
  0.2559852204665830  0.8333333333333333  0.0972124529504781
  0.9166666666666667  0.6726518871332497  0.2481172335611218
  0.4226518871332497  0.5833333333333333  0.4245476096946781
  0.2559852204665830  0.6666666666666666  0.4245476096946781
  0.4226518871332497  0.5833333333333333  0.5882151880667783
  0.4226518871332497  0.5833333333333333  0.7518827664388783
  0.4226518871332497  0.7499999999999999  0.0972124529504781
  0.4226518871332497  0.6666666666666666  0.9155503448109784
  0.4226518871332497  0.6666666666666666  0.7518827664388783
  0.2559852204665830  0.6666666666666666  0.5882151880667783
  0.4226518871332497  0.6666666666666666  0.5882151880667783
  0.2559852204665830  0.6666666666666666  0.7518827664388783
  0.9166666666666667  0.5893185537999164  0.5754523903053219
  0.4226518871332497  0.6666666666666666  0.4245476096946781
  0.4226518871332497  0.6666666666666666  0.2608800313225781
  0.2559852204665830  0.6666666666666666  0.9155503448109784
  0.0023637481682073  0.1666666666666667  0.5938268960630735
  0.4226518871332497  0.6666666666666666  0.0972124529504781
  0.2559852204665830  0.7499999999999999  0.0972124529504781
  0.4226518871332497  0.5833333333333333  0.9155503448109784
  0.9166666666666667  0.5893185537999164  0.7391199686774220
  0.2559852204665830  0.7499999999999999  0.2608800313225781
  0.5023637481682073  0.0000000000000000  0.0788379471927264
  0.2559852204665830  0.5000000000000000  0.5882151880667783
  0.5023637481682073  0.0000000000000000  0.2425055255648265
  0.5023637481682073  0.3333333333333333  0.5698406823090266
  0.2523637481682073  0.3333333333333333  0.1028241609467734
  0.9190304148348740  0.4166666666666666  0.2425055255648265
  0.5023637481682073  0.3333333333333333  0.4061731039369266
  0.0023637481682073  0.3333333333333333  0.1028241609467734
  0.5023637481682073  0.3333333333333333  0.2425055255648265
  0.2523637481682073  0.3333333333333333  0.2664917393188734
  0.0023637481682073  0.2500000000000000  0.9211620528072738
  0.5023637481682073  0.3333333333333333  0.0788379471927264
  0.5023637481682073  0.2500000000000000  0.8971758390532267
  0.2523637481682073  0.3333333333333333  0.4301593176909735
  0.9190304148348740  0.4166666666666666  0.4061731039369266
  0.5023637481682073  0.2500000000000000  0.7335082606811266
  0.5023637481682073  0.2500000000000000  0.5698406823090266
  0.2523637481682073  0.3333333333333333  0.5938268960630735
  0.2523637481682073  0.2500000000000000  0.9211620528072738
  0.6690304148348739  0.0833333333333333  0.2425055255648265
  0.5023637481682073  0.3333333333333333  0.7335082606811266
  0.5023637481682073  0.3333333333333333  0.8971758390532267
  0.2523637481682073  0.2500000000000000  0.1028241609467734
  0.9190304148348740  0.3333333333333333  0.7335082606811266
  0.5000000000000000  0.5059852204665830  0.0844496551890217
  0.5023637481682073  0.4166666666666666  0.8971758390532267
  0.2523637481682073  0.2500000000000000  0.2664917393188734
  0.5023637481682073  0.4166666666666666  0.7335082606811266
  0.5023637481682073  0.4166666666666666  0.5698406823090266
  0.2523637481682073  0.2500000000000000  0.4301593176909735
  0.0023637481682073  0.3333333333333333  0.2664917393188734
  0.9190304148348740  0.3333333333333333  0.8971758390532267
  0.5023637481682073  0.4166666666666666  0.4061731039369266
  0.2523637481682073  0.2500000000000000  0.5938268960630735
  0.5023637481682073  0.4166666666666666  0.2425055255648265
  0.9190304148348740  0.4166666666666666  0.0788379471927264
  0.5023637481682073  0.4166666666666666  0.0788379471927264
  0.2523637481682073  0.2500000000000000  0.7574944744351737
  0.2523637481682073  0.3333333333333333  0.7574944744351737
  0.9190304148348740  0.4166666666666666  0.5698406823090266
  0.5023637481682073  0.2500000000000000  0.2425055255648265
  0.2523637481682073  0.4166666666666666  0.7574944744351737
  0.5023637481682073  0.0833333333333333  0.4061731039369266
  0.2523637481682073  0.4166666666666666  0.9211620528072738
  0.5023637481682073  0.0833333333333333  0.2425055255648265
  0.2559852204665830  0.5000000000000000  0.0972124529504781
  0.9166666666666667  0.5059852204665830  0.2481172335611218
  0.5023637481682073  0.0833333333333333  0.0788379471927264
  0.5023637481682073  0.0000000000000000  0.8971758390532267
  0.2559852204665830  0.5000000000000000  0.2608800313225781
  0.5023637481682073  0.0000000000000000  0.7335082606811266
  0.0023637481682073  0.2500000000000000  0.4301593176909735
  0.5023637481682073  0.0000000000000000  0.5698406823090266
  0.2559852204665830  0.5000000000000000  0.4245476096946781
  0.9166666666666667  0.5059852204665830  0.4117848119332218
  0.5023637481682073  0.0000000000000000  0.4061731039369266
  0.5023637481682073  0.0833333333333333  0.5698406823090266
  0.5023637481682073  0.0833333333333333  0.7335082606811266
  0.9166666666666667  0.5059852204665830  0.0844496551890217
  0.0023637481682073  0.2500000000000000  0.5938268960630735
  0.5023637481682073  0.2500000000000000  0.0788379471927264
  0.5023637481682073  0.1666666666666667  0.8971758390532267
  0.2523637481682073  0.3333333333333333  0.9211620528072738
  0.2523637481682073  0.4166666666666666  0.1028241609467734
  0.0023637481682073  0.2500000000000000  0.7574944744351737
  0.5023637481682073  0.1666666666666667  0.7335082606811266
  0.9190304148348740  0.4166666666666666  0.7335082606811266
  0.4226518871332497  0.5000000000000000  0.2608800313225781
  0.5023637481682073  0.1666666666666667  0.5698406823090266
  0.5023637481682073  0.1666666666666667  0.4061731039369266
  0.5023637481682073  0.1666666666666667  0.2425055255648265
  0.2523637481682073  0.4166666666666666  0.4301593176909735
  0.9190304148348740  0.4166666666666666  0.8971758390532267
  0.5023637481682073  0.1666666666666667  0.0788379471927264
  0.5023637481682073  0.0833333333333333  0.8971758390532267
  0.2523637481682073  0.4166666666666666  0.5938268960630735
  0.2523637481682073  0.4166666666666666  0.2664917393188734
  0.4226518871332497  0.5000000000000000  0.0972124529504781
  0.2559852204665830  0.8333333333333333  0.2608800313225781
  0.4190304148348740  0.4166666666666666  0.9211620528072738
  0.3393185537999164  0.8333333333333333  0.0972124529504781
  0.3356970815015407  0.1666666666666667  0.9211620528072738
  0.3393185537999164  0.7499999999999999  0.9155503448109784
  0.3356970815015407  0.2500000000000000  0.1028241609467734
  0.0023637481682073  0.0000000000000000  0.7574944744351737
  0.3393185537999164  0.7499999999999999  0.7518827664388783
  0.9166666666666667  0.8393185537999163  0.7391199686774220
  0.3393185537999164  0.7499999999999999  0.5882151880667783
  0.3356970815015407  0.2500000000000000  0.2664917393188734
  0.3393185537999164  0.7499999999999999  0.4245476096946781
  0.3356970815015407  0.2500000000000000  0.4301593176909735
  0.3393185537999164  0.7499999999999999  0.2608800313225781
  0.9166666666666667  0.8393185537999163  0.9027875470495221
  0.3393185537999164  0.7499999999999999  0.0972124529504781
  0.3393185537999164  0.6666666666666666  0.9155503448109784
  0.3393185537999164  0.8333333333333333  0.2608800313225781
  0.3356970815015407  0.2500000000000000  0.5938268960630735
  0.9166666666666667  0.8393185537999163  0.5754523903053219
  0.3393185537999164  0.8333333333333333  0.4245476096946781
  0.3393185537999164  0.9166666666666667  0.5882151880667783
  0.3356970815015407  0.1666666666666667  0.1028241609467734
  0.9166666666666667  0.8393185537999163  0.2481172335611218
  0.3393185537999164  0.9166666666666667  0.4245476096946781
  0.3356970815015407  0.1666666666666667  0.2664917393188734
  0.3393185537999164  0.9166666666666667  0.2608800313225781
  0.0023637481682073  0.0833333333333333  0.1028241609467734
  0.3393185537999164  0.9166666666666667  0.0972124529504781
  0.3393185537999164  0.8333333333333333  0.9155503448109784
  0.3356970815015407  0.1666666666666667  0.4301593176909735
  0.9166666666666667  0.8393185537999163  0.4117848119332218
  0.3393185537999164  0.8333333333333333  0.7518827664388783
  0.3356970815015407  0.1666666666666667  0.5938268960630735
  0.0023637481682073  0.0000000000000000  0.9211620528072738
  0.3393185537999164  0.8333333333333333  0.5882151880667783
  0.3356970815015407  0.1666666666666667  0.7574944744351737
  0.9166666666666667  0.9226518871332497  0.0844496551890217
  0.3393185537999164  0.6666666666666666  0.7518827664388783
  0.3356970815015407  0.2500000000000000  0.7574944744351737
  0.3356970815015407  0.3333333333333333  0.7574944744351737
  0.9166666666666667  0.9226518871332497  0.5754523903053219
  0.3393185537999164  0.5000000000000000  0.7518827664388783
  0.3356970815015407  0.3333333333333333  0.9211620528072738
  0.3393185537999164  0.5000000000000000  0.5882151880667783
  0.3356970815015407  0.4166666666666666  0.1028241609467734
  0.0023637481682073  0.0000000000000000  0.2664917393188734
  0.3393185537999164  0.5000000000000000  0.4245476096946781
  0.9166666666666667  0.9226518871332497  0.7391199686774220
  0.3393185537999164  0.5000000000000000  0.2608800313225781
  0.3356970815015407  0.4166666666666666  0.2664917393188734
  0.3393185537999164  0.5000000000000000  0.0972124529504781
  0.3356970815015407  0.4166666666666666  0.9211620528072738
  0.3356970815015407  0.4166666666666666  0.4301593176909735
  0.3356970815015407  0.4166666666666666  0.7574944744351737
  0.3393185537999164  0.5000000000000000  0.9155503448109784
  0.3393185537999164  0.5833333333333333  0.0972124529504781
  0.3393185537999164  0.5833333333333333  0.2608800313225781
  0.3356970815015407  0.3333333333333333  0.5938268960630735
  0.3393185537999164  0.6666666666666666  0.5882151880667783
  0.0023637481682073  0.0000000000000000  0.5938268960630735
  0.3393185537999164  0.6666666666666666  0.4245476096946781
  0.3356970815015407  0.2500000000000000  0.9211620528072738
  0.3393185537999164  0.6666666666666666  0.2608800313225781
  0.3356970815015407  0.3333333333333333  0.1028241609467734
  0.9166666666666667  0.9226518871332497  0.2481172335611218
  0.3356970815015407  0.0833333333333333  0.9211620528072738
  0.3393185537999164  0.6666666666666666  0.0972124529504781
  0.3356970815015407  0.3333333333333333  0.2664917393188734
  0.3393185537999164  0.5833333333333333  0.7518827664388783
  0.0023637481682073  0.0000000000000000  0.4301593176909735
  0.3393185537999164  0.5833333333333333  0.5882151880667783
  0.3356970815015407  0.3333333333333333  0.4301593176909735
  0.9166666666666667  0.9226518871332497  0.4117848119332218
  0.3393185537999164  0.5833333333333333  0.4245476096946781
  0.3393185537999164  0.5833333333333333  0.9155503448109784
  0.5000000000000000  0.5059852204665830  0.2481172335611218
  0.3393185537999164  0.9166666666666667  0.7518827664388783
  0.3356970815015407  0.0833333333333333  0.7574944744351737
  0.4190304148348740  0.3333333333333333  0.4301593176909735
  0.2559852204665830  0.9166666666666667  0.2608800313225781
  0.4190304148348740  0.3333333333333333  0.2664917393188734
  0.4190304148348740  0.3333333333333333  0.1028241609467734
  0.2559852204665830  0.9166666666666667  0.4245476096946781
  0.4190304148348740  0.2500000000000000  0.9211620528072738
  0.9166666666666667  0.6726518871332497  0.9027875470495221
  0.4190304148348740  0.2500000000000000  0.7574944744351737
  0.2559852204665830  0.9166666666666667  0.5882151880667783
  0.9166666666666667  0.7559852204665829  0.0844496551890217
  0.4190304148348740  0.2500000000000000  0.5938268960630735
  0.4190304148348740  0.2500000000000000  0.4301593176909735
  0.2559852204665830  0.9166666666666667  0.7518827664388783
  0.0023637481682073  0.0833333333333333  0.7574944744351737
  0.4190304148348740  0.2500000000000000  0.2664917393188734
  0.9166666666666667  0.6726518871332497  0.7391199686774220
  0.2559852204665830  0.9166666666666667  0.9155503448109784
  0.0023637481682073  0.0833333333333333  0.9211620528072738
  0.2559852204665830  0.9166666666666667  0.0972124529504781
  0.0023637481682073  0.1666666666666667  0.2664917393188734
  0.4190304148348740  0.4166666666666666  0.7574944744351737
  0.2559852204665830  0.8333333333333333  0.4245476096946781
  0.9166666666666667  0.6726518871332497  0.4117848119332218
  0.4190304148348740  0.4166666666666666  0.5938268960630735
  0.4190304148348740  0.4166666666666666  0.4301593176909735
  0.2559852204665830  0.8333333333333333  0.5882151880667783
  0.4190304148348740  0.4166666666666666  0.2664917393188734
  0.2559852204665830  0.8333333333333333  0.7518827664388783
  0.9166666666666667  0.6726518871332497  0.5754523903053219
  0.4190304148348740  0.4166666666666666  0.1028241609467734
  0.4190304148348740  0.3333333333333333  0.9211620528072738
  0.0023637481682073  0.1666666666666667  0.1028241609467734
  0.4190304148348740  0.3333333333333333  0.7574944744351737
  0.2559852204665830  0.8333333333333333  0.9155503448109784
  0.4190304148348740  0.3333333333333333  0.5938268960630735
  0.4190304148348740  0.2500000000000000  0.1028241609467734
  0.4190304148348740  0.1666666666666667  0.9211620528072738
  0.3356970815015407  0.0000000000000000  0.1028241609467734
  0.4190304148348740  0.0833333333333333  0.2664917393188734
  0.9166666666666667  0.7559852204665829  0.7391199686774220
  0.4190304148348740  0.0833333333333333  0.1028241609467734
  0.4190304148348740  0.0000000000000000  0.9211620528072738
  0.3356970815015407  0.0833333333333333  0.2664917393188734
  0.4190304148348740  0.0000000000000000  0.7574944744351737
  0.3356970815015407  0.0833333333333333  0.4301593176909735
  0.4190304148348740  0.0000000000000000  0.5938268960630735
  0.9166666666666667  0.7559852204665829  0.9027875470495221
  0.4190304148348740  0.0000000000000000  0.4301593176909735
  0.3356970815015407  0.0833333333333333  0.5938268960630735
  0.0023637481682073  0.0833333333333333  0.2664917393188734
  0.9166666666666667  0.8393185537999163  0.0844496551890217
  0.4190304148348740  0.0000000000000000  0.2664917393188734
  0.4190304148348740  0.0000000000000000  0.1028241609467734
  0.0023637481682073  0.0833333333333333  0.4301593176909735
  0.3356970815015407  0.0833333333333333  0.1028241609467734
  0.3356970815015407  0.0000000000000000  0.9211620528072738
  0.4190304148348740  0.0833333333333333  0.4301593176909735
  0.9166666666666667  0.7559852204665829  0.2481172335611218
  0.4190304148348740  0.1666666666666667  0.7574944744351737
  0.3356970815015407  0.0000000000000000  0.2664917393188734
  0.4190304148348740  0.1666666666666667  0.5938268960630735
  0.0023637481682073  0.0833333333333333  0.5938268960630735
  0.4190304148348740  0.1666666666666667  0.4301593176909735
  0.3356970815015407  0.0000000000000000  0.4301593176909735
  0.3393185537999164  0.9166666666666667  0.9155503448109784
  0.9166666666666667  0.7559852204665829  0.4117848119332218
  0.4190304148348740  0.1666666666666667  0.1028241609467734
  0.3356970815015407  0.0000000000000000  0.5938268960630735
  0.4190304148348740  0.0833333333333333  0.9211620528072738
  0.4190304148348740  0.0833333333333333  0.7574944744351737
  0.3356970815015407  0.0000000000000000  0.7574944744351737
  0.9166666666666667  0.7559852204665829  0.5754523903053219
  0.4190304148348740  0.0833333333333333  0.5938268960630735
  0.4190304148348740  0.1666666666666667  0.2664917393188734
  0.2523637481682073  0.1666666666666667  0.9211620528072738
  0.5023637481682073  0.2500000000000000  0.4061731039369266
  0.0023637481682073  0.3333333333333333  0.4301593176909735
  0.1726518871332497  0.6666666666666666  0.2608800313225781
  0.5856970815015407  0.4166666666666666  0.5698406823090266
  0.9190304148348740  0.0833333333333333  0.4061731039369266
  0.5856970815015407  0.4166666666666666  0.4061731039369266
  0.1726518871332497  0.6666666666666666  0.4245476096946781
  0.5856970815015407  0.4166666666666666  0.2425055255648265
  0.5856970815015407  0.4166666666666666  0.7335082606811266
  0.1726518871332497  0.6666666666666666  0.5882151880667783
  0.0059852204665831  0.5000000000000000  0.2608800313225781
  0.5856970815015407  0.3333333333333333  0.8971758390532267
  0.9190304148348740  0.0833333333333333  0.5698406823090266
  0.5856970815015407  0.3333333333333333  0.7335082606811266
  0.1726518871332497  0.6666666666666666  0.7518827664388783
  0.5856970815015407  0.3333333333333333  0.5698406823090266
  0.5856970815015407  0.4166666666666666  0.0788379471927264
  0.1726518871332497  0.6666666666666666  0.9155503448109784
  0.0059852204665831  0.5000000000000000  0.4245476096946781
  0.1726518871332497  0.6666666666666666  0.0972124529504781
  0.0059852204665831  0.5000000000000000  0.5882151880667783
  0.5833333333333333  0.5893185537999164  0.0844496551890217
  0.9190304148348740  0.0000000000000000  0.8971758390532267
  0.5833333333333333  0.5059852204665830  0.9027875470495221
  0.5833333333333333  0.5059852204665830  0.7391199686774220
  0.1726518871332497  0.5833333333333333  0.5882151880667783
  0.5856970815015407  0.4166666666666666  0.8971758390532267
  0.9190304148348740  0.0833333333333333  0.0788379471927264
  0.1726518871332497  0.5833333333333333  0.7518827664388783
  0.5833333333333333  0.5059852204665830  0.4117848119332218
  0.5833333333333333  0.5059852204665830  0.2481172335611218
  0.1726518871332497  0.5833333333333333  0.9155503448109784
  0.9190304148348740  0.0833333333333333  0.2425055255648265
  0.5833333333333333  0.5059852204665830  0.0844496551890217
  0.5833333333333333  0.5059852204665830  0.5754523903053219
  0.5856970815015407  0.3333333333333333  0.4061731039369266
  0.1726518871332497  0.7499999999999999  0.0972124529504781
  0.9190304148348740  0.0833333333333333  0.7335082606811266
  0.1726518871332497  0.8333333333333333  0.0972124529504781
  0.9190304148348740  0.1666666666666667  0.2425055255648265
  0.5856970815015407  0.1666666666666667  0.5698406823090266
  0.5856970815015407  0.1666666666666667  0.4061731039369266
  0.1726518871332497  0.8333333333333333  0.2608800313225781
  0.0023637481682073  0.4166666666666666  0.7574944744351737
  0.1726518871332497  0.7499999999999999  0.9155503448109784
  0.5856970815015407  0.1666666666666667  0.2425055255648265
  0.5856970815015407  0.1666666666666667  0.0788379471927264
  0.1726518871332497  0.8333333333333333  0.4245476096946781
  0.5856970815015407  0.0833333333333333  0.8971758390532267
  0.5856970815015407  0.0833333333333333  0.7335082606811266
  0.1726518871332497  0.8333333333333333  0.5882151880667783
  0.5856970815015407  0.0833333333333333  0.5698406823090266
  0.9190304148348740  0.1666666666666667  0.4061731039369266
  0.5856970815015407  0.1666666666666667  0.7335082606811266
  0.5856970815015407  0.1666666666666667  0.8971758390532267
  0.5856970815015407  0.2500000000000000  0.0788379471927264
  0.5856970815015407  0.3333333333333333  0.2425055255648265
  0.5856970815015407  0.3333333333333333  0.0788379471927264
  0.1726518871332497  0.7499999999999999  0.2608800313225781
  0.5856970815015407  0.2500000000000000  0.8971758390532267
  0.5000000000000000  0.5059852204665830  0.4117848119332218
  0.5856970815015407  0.2500000000000000  0.7335082606811266
  0.1726518871332497  0.7499999999999999  0.4245476096946781
  0.9190304148348740  0.0833333333333333  0.8971758390532267
  0.5856970815015407  0.2500000000000000  0.5698406823090266
  0.0023637481682073  0.4166666666666666  0.9211620528072738
  0.5856970815015407  0.2500000000000000  0.4061731039369266
  0.1726518871332497  0.7499999999999999  0.5882151880667783
  0.9190304148348740  0.1666666666666667  0.0788379471927264
  0.5856970815015407  0.2500000000000000  0.2425055255648265
  0.1726518871332497  0.7499999999999999  0.7518827664388783
  0.1726518871332497  0.5833333333333333  0.4245476096946781
  0.5833333333333333  0.5893185537999164  0.2481172335611218
  0.1726518871332497  0.5833333333333333  0.2608800313225781
  0.5833333333333333  0.5893185537999164  0.4117848119332218
  0.5833333333333333  0.9226518871332497  0.5754523903053219
  0.1690304148348740  0.3333333333333333  0.7574944744351737
  0.5833333333333333  0.9226518871332497  0.4117848119332218
  0.5833333333333333  0.9226518871332497  0.2481172335611218
  0.1690304148348740  0.3333333333333333  0.9211620528072738
  0.1690304148348740  0.4166666666666666  0.1028241609467734
  0.8333333333333333  0.9226518871332497  0.5754523903053219
  0.5833333333333333  0.9226518871332497  0.0844496551890217
  0.5833333333333333  0.8393185537999163  0.9027875470495221
  0.5833333333333333  0.8393185537999163  0.7391199686774220
  0.1690304148348740  0.4166666666666666  0.2664917393188734
  0.0059852204665831  0.5833333333333333  0.2608800313225781
  0.5833333333333333  0.8393185537999163  0.5754523903053219
  0.1690304148348740  0.4166666666666666  0.4301593176909735
  0.8333333333333333  0.9226518871332497  0.7391199686774220
  0.0059852204665831  0.5833333333333333  0.4245476096946781
  0.5833333333333333  0.9226518871332497  0.7391199686774220
  0.1690304148348740  0.3333333333333333  0.5938268960630735
  0.6690304148348739  0.0833333333333333  0.0788379471927264
  0.6690304148348739  0.0000000000000000  0.8971758390532267
  0.1690304148348740  0.2500000000000000  0.9211620528072738
  0.8333333333333333  0.9226518871332497  0.2481172335611218
  0.6690304148348739  0.0000000000000000  0.7335082606811266
  0.1690304148348740  0.3333333333333333  0.1028241609467734
  0.0059852204665831  0.5833333333333333  0.5882151880667783
  0.6690304148348739  0.0000000000000000  0.5698406823090266
  0.1690304148348740  0.3333333333333333  0.2664917393188734
  0.6690304148348739  0.0000000000000000  0.4061731039369266
  0.8333333333333333  0.9226518871332497  0.4117848119332218
  0.6690304148348739  0.0000000000000000  0.2425055255648265
  0.1690304148348740  0.3333333333333333  0.4301593176909735
  0.6690304148348739  0.0000000000000000  0.0788379471927264
  0.5833333333333333  0.9226518871332497  0.9027875470495221
  0.5833333333333333  0.8393185537999163  0.4117848119332218
  0.9190304148348740  0.1666666666666667  0.5698406823090266
  0.8333333333333333  0.9226518871332497  0.9027875470495221
  0.1690304148348740  0.4166666666666666  0.5938268960630735
  0.5833333333333333  0.6726518871332497  0.5754523903053219
  0.1726518871332497  0.5000000000000000  0.5882151880667783
  0.5833333333333333  0.6726518871332497  0.4117848119332218
  0.9190304148348740  0.0000000000000000  0.5698406823090266
  0.5833333333333333  0.6726518871332497  0.2481172335611218
  0.1726518871332497  0.5000000000000000  0.7518827664388783
  0.1726518871332497  0.5000000000000000  0.4245476096946781
  0.0059852204665831  0.5000000000000000  0.7518827664388783
  0.5833333333333333  0.5893185537999164  0.9027875470495221
  0.1726518871332497  0.5000000000000000  0.9155503448109784
  0.5833333333333333  0.5893185537999164  0.7391199686774220
  0.1726518871332497  0.5833333333333333  0.0972124529504781
  0.9190304148348740  0.0000000000000000  0.7335082606811266
  0.5833333333333333  0.5893185537999164  0.5754523903053219
  0.5833333333333333  0.6726518871332497  0.0844496551890217
  0.5833333333333333  0.6726518871332497  0.7391199686774220
  0.9190304148348740  0.0000000000000000  0.4061731039369266
  0.5833333333333333  0.6726518871332497  0.9027875470495221
  0.9190304148348740  0.0000000000000000  0.0788379471927264
  0.5833333333333333  0.8393185537999163  0.0844496551890217
  0.5833333333333333  0.7559852204665829  0.9027875470495221
  0.1690304148348740  0.4166666666666666  0.7574944744351737
  0.5833333333333333  0.7559852204665829  0.7391199686774220
  0.0059852204665831  0.5833333333333333  0.0972124529504781
  0.5833333333333333  0.7559852204665829  0.5754523903053219
  0.1690304148348740  0.4166666666666666  0.9211620528072738
  0.9190304148348740  0.0000000000000000  0.2425055255648265
  0.5833333333333333  0.7559852204665829  0.4117848119332218
  0.1726518871332497  0.5000000000000000  0.0972124529504781
  0.5833333333333333  0.7559852204665829  0.2481172335611218
  0.1726518871332497  0.5000000000000000  0.2608800313225781
  0.0059852204665831  0.5000000000000000  0.9155503448109784
  0.5833333333333333  0.7559852204665829  0.0844496551890217
  0.5833333333333333  0.8393185537999163  0.2481172335611218
  0.5856970815015407  0.0833333333333333  0.4061731039369266
  0.0059852204665831  0.5000000000000000  0.0972124529504781
  0.8356970815015407  0.2500000000000000  0.4061731039369266
  0.2523637481682073  0.0833333333333333  0.7574944744351737
  0.9190304148348740  0.2500000000000000  0.4061731039369266
  0.2523637481682073  0.0000000000000000  0.4301593176909735
  0.5000000000000000  0.6726518871332497  0.2481172335611218
  0.5000000000000000  0.6726518871332497  0.0844496551890217
  0.5000000000000000  0.8393185537999163  0.7391199686774220
  0.2523637481682073  0.0000000000000000  0.2664917393188734
  0.5000000000000000  0.8393185537999163  0.9027875470495221
  0.5000000000000000  0.9226518871332497  0.0844496551890217
  0.0023637481682073  0.4166666666666666  0.2664917393188734
  0.2523637481682073  0.0833333333333333  0.9211620528072738
  0.5000000000000000  0.8393185537999163  0.5754523903053219
  0.5000000000000000  0.5893185537999164  0.9027875470495221
  0.9190304148348740  0.3333333333333333  0.2425055255648265
  0.5000000000000000  0.9226518871332497  0.2481172335611218
  0.9190304148348740  0.2500000000000000  0.2425055255648265
  0.1726518871332497  0.9166666666666667  0.9155503448109784
  0.5000000000000000  0.5893185537999164  0.7391199686774220
  0.5000000000000000  0.5893185537999164  0.5754523903053219
  0.5000000000000000  0.9226518871332497  0.4117848119332218
  0.2523637481682073  0.1666666666666667  0.2664917393188734
  0.5000000000000000  0.9226518871332497  0.5754523903053219
  0.1726518871332497  0.9166666666666667  0.7518827664388783
  0.0023637481682073  0.3333333333333333  0.5938268960630735
  0.2523637481682073  0.1666666666666667  0.1028241609467734
  0.5000000000000000  0.5893185537999164  0.4117848119332218
  0.5000000000000000  0.6726518871332497  0.4117848119332218
  0.2523637481682073  0.0000000000000000  0.5938268960630735
  0.5000000000000000  0.7559852204665829  0.0844496551890217
  0.2523637481682073  0.0833333333333333  0.2664917393188734
  0.5000000000000000  0.6726518871332497  0.9027875470495221
  0.5000000000000000  0.7559852204665829  0.4117848119332218
  0.9190304148348740  0.2500000000000000  0.7335082606811266
  0.2523637481682073  0.0833333333333333  0.4301593176909735
  0.2523637481682073  0.0833333333333333  0.1028241609467734
  0.5000000000000000  0.7559852204665829  0.5754523903053219
  0.9190304148348740  0.2500000000000000  0.8971758390532267
  0.0023637481682073  0.3333333333333333  0.9211620528072738
  0.2523637481682073  0.0000000000000000  0.9211620528072738
  0.5000000000000000  0.8393185537999163  0.4117848119332218
  0.5000000000000000  0.7559852204665829  0.7391199686774220
  0.5000000000000000  0.7559852204665829  0.9027875470495221
  0.1726518871332497  0.8333333333333333  0.7518827664388783
  0.2523637481682073  0.0000000000000000  0.7574944744351737
  0.2523637481682073  0.0833333333333333  0.5938268960630735
  0.5000000000000000  0.8393185537999163  0.0844496551890217
  0.0023637481682073  0.3333333333333333  0.7574944744351737
  0.9190304148348740  0.2500000000000000  0.5698406823090266
  0.5000000000000000  0.8393185537999163  0.2481172335611218
  0.0023637481682073  0.4166666666666666  0.1028241609467734
  0.5000000000000000  0.6726518871332497  0.5754523903053219
  0.9190304148348740  0.3333333333333333  0.0788379471927264
  0.5000000000000000  0.6726518871332497  0.7391199686774220
  0.5000000000000000  0.9226518871332497  0.7391199686774220
  0.2523637481682073  0.0000000000000000  0.1028241609467734
  0.9190304148348740  0.2500000000000000  0.0788379471927264
  0.9190304148348740  0.1666666666666667  0.8971758390532267
  0.0023637481682073  0.4166666666666666  0.4301593176909735
  0.1726518871332497  0.9166666666666667  0.4245476096946781
  0.5856970815015407  0.0000000000000000  0.4061731039369266
  0.5000000000000000  0.5893185537999164  0.0844496551890217
  0.5000000000000000  0.5059852204665830  0.9027875470495221
  0.2523637481682073  0.1666666666666667  0.5938268960630735
  0.5856970815015407  0.0000000000000000  0.5698406823090266
  0.5000000000000000  0.5059852204665830  0.7391199686774220
  0.1726518871332497  0.9166666666666667  0.2608800313225781
  0.5856970815015407  0.0000000000000000  0.7335082606811266
  0.2523637481682073  0.1666666666666667  0.7574944744351737
  0.9190304148348740  0.1666666666666667  0.7335082606811266
  0.1726518871332497  0.9166666666666667  0.0972124529504781
  0.5856970815015407  0.0000000000000000  0.8971758390532267
  0.5856970815015407  0.0833333333333333  0.0788379471927264
  0.1726518871332497  0.8333333333333333  0.9155503448109784
  0.9190304148348740  0.3333333333333333  0.5698406823090266
  0.5856970815015407  0.0833333333333333  0.2425055255648265
  0.5000000000000000  0.5059852204665830  0.5754523903053219
  0.0023637481682073  0.4166666666666666  0.5938268960630735
  0.5856970815015407  0.0000000000000000  0.2425055255648265
  0.5856970815015407  0.0000000000000000  0.0788379471927264
  0.5000000000000000  0.7559852204665829  0.2481172335611218
  0.9190304148348740  0.3333333333333333  0.4061731039369266
  0.5000000000000000  0.5893185537999164  0.2481172335611218
  0.5000000000000000  0.9226518871332497  0.9027875470495221
  0.1726518871332497  0.9166666666666667  0.5882151880667783
  0.2523637481682073  0.1666666666666667  0.4301593176909735
  0.9595543102019585  0.4583333333333334  0.3301374697811892
  0.9595543102019585  0.4583333333333334  0.6574726265253893
  0.9595543102019585  0.0416666666666667  0.3301374697811892
  0.0447582886260661  0.7916666666666665  0.6669638434005142
  0.9595543102019585  0.3749999999999999  0.8211402048974894
  0.8749999999999999  0.9614249552927328  0.3330361565994859
  0.9583333333333334  0.8780916219593994  0.4967037349715860
  0.9595543102019585  0.4583333333333334  0.1664698914090892
  0.8749999999999999  0.8780916219593994  0.8240388917157861
  0.8749999999999999  0.8780916219593994  0.4967037349715860
  0.8749999999999999  0.6280916219593994  0.3330361565994859
  0.0447582886260661  0.7916666666666665  0.8306314217726143
  0.0428876435352918  0.0416666666666667  0.5061949518467108
  0.8749999999999999  0.6280916219593994  0.8240388917157861
  0.0428876435352918  0.3749999999999999  0.1788597951025107
  0.0428876435352918  0.3749999999999999  0.8335301085909110
  0.8749999999999999  0.9614249552927328  0.6603713133436859
  0.0428876435352918  0.1250000000000000  0.1788597951025107
  0.9583333333333334  0.9614249552927328  0.8240388917157861
  0.9583333333333334  0.9614249552927328  0.3330361565994859
  0.8749999999999999  0.7114249552927326  0.3330361565994859
  0.8762209768686251  0.3749999999999999  0.4938050481532893
  0.9583333333333334  0.8780916219593994  0.3330361565994859
  0.9595543102019585  0.3749999999999999  0.6574726265253893
  0.8749999999999999  0.9614249552927328  0.1693685782273859
  0.0428876435352918  0.0416666666666667  0.1788597951025107
  0.0447582886260661  0.6250000000000000  0.6669638434005142
  0.9595543102019585  0.0416666666666667  0.4938050481532893
  0.0428876435352918  0.2916666666666666  0.8335301085909110
  0.0428876435352918  0.3749999999999999  0.6698625302188108
  0.0428876435352918  0.3749999999999999  0.3425273734746108
  0.0428876435352918  0.0416666666666667  0.3425273734746108
  0.9595543102019585  0.3749999999999999  0.4938050481532893
  0.0447582886260661  0.6250000000000000  0.8306314217726143
  0.1262209768686252  0.0416666666666667  0.1788597951025107
  0.8749999999999999  0.6280916219593994  0.6603713133436859
  0.8762209768686251  0.3749999999999999  0.1664698914090892
  0.0428876435352918  0.0416666666666667  0.6698625302188108
  0.8749999999999999  0.7114249552927326  0.1693685782273859
  0.9583333333333334  0.8780916219593994  0.8240388917157861
  0.9583333333333334  0.9614249552927328  0.4967037349715860
  0.8749999999999999  0.8780916219593994  0.6603713133436859
  0.0447582886260661  0.9583333333333334  0.6669638434005142
  0.0447582886260661  0.9583333333333334  0.8306314217726143
  0.8749999999999999  0.9614249552927328  0.4967037349715860
  0.8749999999999999  0.6280916219593994  0.4967037349715860
  0.0447582886260661  0.6250000000000000  0.3396286866563141
  0.8749999999999999  0.9614249552927328  0.8240388917157861
  0.9583333333333334  0.9614249552927328  0.6603713133436859
  0.0428876435352918  0.0416666666666667  0.8335301085909110
  0.8762209768686251  0.2916666666666666  0.8211402048974894
  0.9595543102019585  0.4583333333333334  0.4938050481532893
  0.0447582886260661  0.7916666666666665  0.5032962650284141
  0.9595543102019585  0.3749999999999999  0.1664698914090892
  0.9595543102019585  0.3749999999999999  0.3301374697811892
  0.0447582886260661  0.6250000000000000  0.1759611082842140
  0.0428876435352918  0.3749999999999999  0.5061949518467108
  0.9583333333333334  0.8780916219593994  0.6603713133436859
  0.9583333333333334  0.9614249552927328  0.1693685782273859
  0.8762209768686251  0.3749999999999999  0.3301374697811892
  0.0447582886260661  0.7083333333333333  0.1759611082842140
  0.0447582886260661  0.6250000000000000  0.5032962650284141
  0.9595543102019585  0.0416666666666667  0.1664698914090892
  0.8762209768686251  0.2916666666666666  0.6574726265253893
  0.0428876435352918  0.2083333333333333  0.8335301085909110
  0.0447582886260661  0.8749999999999999  0.1759611082842140
  0.8749999999999999  0.5447582886260660  0.4967037349715860
  0.0428876435352918  0.2916666666666666  0.1788597951025107
  0.0447582886260661  0.8749999999999999  0.5032962650284141
  0.9583333333333334  0.7114249552927326  0.3330361565994859
  0.8749999999999999  0.7947582886260659  0.4967037349715860
  0.0428876435352918  0.2083333333333333  0.3425273734746108
  0.8762209768686251  0.4583333333333334  0.6574726265253893
  0.9583333333333334  0.5447582886260660  0.8240388917157861
  0.0447582886260661  0.5416666666666666  0.1759611082842140
  0.9595543102019585  0.2916666666666666  0.1664698914090892
  0.0447582886260661  0.7083333333333333  0.6669638434005142
  0.9583333333333334  0.7114249552927326  0.4967037349715860
  0.9595543102019585  0.1250000000000000  0.8211402048974894
  0.0447582886260661  0.7916666666666665  0.1759611082842140
  0.0428876435352918  0.2083333333333333  0.1788597951025107
  0.0428876435352918  0.4583333333333334  0.3425273734746108
  0.8762209768686251  0.2916666666666666  0.4938050481532893
  0.8762209768686251  0.4583333333333334  0.4938050481532893
  0.9583333333333334  0.7114249552927326  0.6603713133436859
  0.9583333333333334  0.5447582886260660  0.6603713133436859
  0.9595543102019585  0.1250000000000000  0.6574726265253893
  0.8749999999999999  0.7114249552927326  0.8240388917157861
  0.8749999999999999  0.7947582886260659  0.6603713133436859
  0.9583333333333334  0.7114249552927326  0.1693685782273859
  0.0428876435352918  0.4583333333333334  0.5061949518467108
  0.9595543102019585  0.2083333333333333  0.6574726265253893
  0.0447582886260661  0.8749999999999999  0.6669638434005142
  0.0428876435352918  0.4583333333333334  0.6698625302188108
  0.9583333333333334  0.6280916219593994  0.4967037349715860
  0.8749999999999999  0.7947582886260659  0.1693685782273859
  0.8749999999999999  0.5447582886260660  0.1693685782273859
  0.9595543102019585  0.2083333333333333  0.4938050481532893
  0.9583333333333334  0.6280916219593994  0.3330361565994859
  0.9583333333333334  0.6280916219593994  0.6603713133436859
  0.0428876435352918  0.2083333333333333  0.6698625302188108
  0.8749999999999999  0.5447582886260660  0.3330361565994859
  0.0447582886260661  0.7083333333333333  0.8306314217726143
  0.0428876435352918  0.4583333333333334  0.8335301085909110
  0.9595543102019585  0.2083333333333333  0.3301374697811892
  0.9583333333333334  0.6280916219593994  0.8240388917157861
  0.9595543102019585  0.2083333333333333  0.8211402048974894
  0.8749999999999999  0.7947582886260659  0.3330361565994859
  0.0428876435352918  0.2083333333333333  0.5061949518467108
  0.0447582886260661  0.8749999999999999  0.8306314217726143
  0.8762209768686251  0.4583333333333334  0.8211402048974894
  0.9583333333333334  0.6280916219593994  0.1693685782273859
  0.9595543102019585  0.2083333333333333  0.1664698914090892
  0.9595543102019585  0.2916666666666666  0.8211402048974894
  0.0447582886260661  0.9583333333333334  0.1759611082842140
  0.9595543102019585  0.2916666666666666  0.3301374697811892
  0.0428876435352918  0.4583333333333334  0.1788597951025107
  0.8749999999999999  0.7114249552927326  0.4967037349715860
  0.9583333333333334  0.5447582886260660  0.1693685782273859
  0.9583333333333334  0.7947582886260659  0.6603713133436859
  0.8762209768686251  0.3749999999999999  0.8211402048974894
  0.0428876435352918  0.1250000000000000  0.5061949518467108
  0.8749999999999999  0.8780916219593994  0.1693685782273859
  0.9595543102019585  0.2916666666666666  0.6574726265253893
  0.9595543102019585  0.0416666666666667  0.8211402048974894
  0.0447582886260661  0.9583333333333334  0.5032962650284141
  0.0447582886260661  0.7083333333333333  0.3396286866563141
  0.9583333333333334  0.7947582886260659  0.8240388917157861
  0.0428876435352918  0.2916666666666666  0.6698625302188108
  0.0428876435352918  0.1250000000000000  0.3425273734746108
  0.8762209768686251  0.3749999999999999  0.6574726265253893
  0.8749999999999999  0.6280916219593994  0.1693685782273859
  0.9595543102019585  0.0416666666666667  0.6574726265253893
  0.9595543102019585  0.4583333333333334  0.8211402048974894
  0.9583333333333334  0.8780916219593994  0.1693685782273859
  0.8749999999999999  0.8780916219593994  0.3330361565994859
  0.0447582886260661  0.5416666666666666  0.8306314217726143
  0.9583333333333334  0.7947582886260659  0.4967037349715860
  0.8749999999999999  0.5447582886260660  0.6603713133436859
  0.0447582886260661  0.7916666666666665  0.3396286866563141
  0.9583333333333334  0.5447582886260660  0.3330361565994859
  0.0447582886260661  0.5416666666666666  0.3396286866563141
  0.9583333333333334  0.7114249552927326  0.8240388917157861
  0.8749999999999999  0.7114249552927326  0.6603713133436859
  0.0428876435352918  0.2916666666666666  0.3425273734746108
  0.9595543102019585  0.1250000000000000  0.4938050481532893
  0.8762209768686251  0.4583333333333334  0.3301374697811892
  0.0447582886260661  0.8749999999999999  0.3396286866563141
  0.0428876435352918  0.1250000000000000  0.8335301085909110
  0.9583333333333334  0.5447582886260660  0.4967037349715860
  0.9583333333333334  0.7947582886260659  0.1693685782273859
  0.9595543102019585  0.1250000000000000  0.3301374697811892
  0.8749999999999999  0.7947582886260659  0.8240388917157861
  0.0447582886260661  0.9583333333333334  0.3396286866563141
  0.8762209768686251  0.4583333333333334  0.1664698914090892
  0.0447582886260661  0.7083333333333333  0.5032962650284141
  0.0428876435352918  0.2916666666666666  0.5061949518467108
  0.9595543102019585  0.2916666666666666  0.4938050481532893
  0.9583333333333334  0.7947582886260659  0.3330361565994859
  0.8749999999999999  0.5447582886260660  0.8240388917157861
  0.0447582886260661  0.5416666666666666  0.5032962650284141
  0.0428876435352918  0.1250000000000000  0.6698625302188108
  0.9595543102019585  0.1250000000000000  0.1664698914090892
  0.0447582886260661  0.5416666666666666  0.6669638434005142
  0.3762209768686251  0.4583333333333334  0.6698625302188108
  0.8762209768686251  0.2916666666666666  0.3301374697811892
  0.5428876435352917  0.2916666666666666  0.6574726265253893
  0.5428876435352917  0.2916666666666666  0.8211402048974894
  0.2928876435352918  0.3749999999999999  0.5061949518467108
  0.5428876435352917  0.3749999999999999  0.1664698914090892
  0.2928876435352918  0.3749999999999999  0.3425273734746108
  0.5428876435352917  0.3749999999999999  0.3301374697811892
  0.5428876435352917  0.3749999999999999  0.4938050481532893
  0.2928876435352918  0.3749999999999999  0.1788597951025107
  0.5428876435352917  0.3749999999999999  0.6574726265253893
  0.5428876435352917  0.3749999999999999  0.8211402048974894
  0.2928876435352918  0.2916666666666666  0.8335301085909110
  0.5428876435352917  0.4583333333333334  0.1664698914090892
  0.2928876435352918  0.2916666666666666  0.6698625302188108
  0.5428876435352917  0.4583333333333334  0.3301374697811892
  0.2928876435352918  0.3749999999999999  0.6698625302188108
  0.5428876435352917  0.4583333333333334  0.4938050481532893
  0.5428876435352917  0.4583333333333334  0.6574726265253893
  0.5428876435352917  0.4583333333333334  0.8211402048974894
  0.2928876435352918  0.2916666666666666  0.3425273734746108
  0.5416666666666666  0.5447582886260660  0.1693685782273859
  0.2928876435352918  0.2916666666666666  0.1788597951025107
  0.5416666666666666  0.5447582886260660  0.3330361565994859
  0.5416666666666666  0.5447582886260660  0.4967037349715860
  0.2928876435352918  0.2083333333333333  0.8335301085909110
  0.5416666666666666  0.5447582886260660  0.6603713133436859
  0.5416666666666666  0.5447582886260660  0.8240388917157861
  0.2928876435352918  0.2083333333333333  0.6698625302188108
  0.5416666666666666  0.6280916219593994  0.1693685782273859
  0.2928876435352918  0.2083333333333333  0.5061949518467108
  0.5416666666666666  0.6280916219593994  0.3330361565994859
  0.2928876435352918  0.2916666666666666  0.5061949518467108
  0.5428876435352917  0.2916666666666666  0.4938050481532893
  0.5428876435352917  0.2916666666666666  0.3301374697811892
  0.2928876435352918  0.3749999999999999  0.8335301085909110
  0.4614249552927327  0.9583333333333334  0.3396286866563141
  0.2947582886260661  0.6250000000000000  0.1759611082842140
  0.4614249552927327  0.9583333333333334  0.5032962650284141
  0.4614249552927327  0.9583333333333334  0.6669638434005142
  0.2947582886260661  0.5416666666666666  0.8306314217726143
  0.4614249552927327  0.9583333333333334  0.8306314217726143
  0.5428876435352917  0.0416666666666667  0.1664698914090892
  0.2947582886260661  0.5416666666666666  0.6669638434005142
  0.5428876435352917  0.0416666666666667  0.3301374697811892
  0.5428876435352917  0.0416666666666667  0.4938050481532893
  0.2947582886260661  0.5416666666666666  0.5032962650284141
  0.5428876435352917  0.0416666666666667  0.6574726265253893
  0.2947582886260661  0.5416666666666666  0.3396286866563141
  0.5428876435352917  0.0416666666666667  0.8211402048974894
  0.5428876435352917  0.1250000000000000  0.1664698914090892
  0.2947582886260661  0.5416666666666666  0.1759611082842140
  0.5428876435352917  0.1250000000000000  0.3301374697811892
  0.5428876435352917  0.2916666666666666  0.1664698914090892
  0.5428876435352917  0.2083333333333333  0.8211402048974894
  0.2928876435352918  0.4583333333333334  0.1788597951025107
  0.5428876435352917  0.2083333333333333  0.6574726265253893
  0.2928876435352918  0.4583333333333334  0.3425273734746108
  0.5428876435352917  0.2083333333333333  0.4938050481532893
  0.5416666666666666  0.6280916219593994  0.4967037349715860
  0.5428876435352917  0.2083333333333333  0.3301374697811892
  0.5428876435352917  0.2083333333333333  0.1664698914090892
  0.2928876435352918  0.4583333333333334  0.6698625302188108
  0.5428876435352917  0.1250000000000000  0.8211402048974894
  0.5428876435352917  0.1250000000000000  0.6574726265253893
  0.2928876435352918  0.4583333333333334  0.8335301085909110
  0.5428876435352917  0.1250000000000000  0.4938050481532893
  0.2928876435352918  0.4583333333333334  0.5061949518467108
  0.2928876435352918  0.2083333333333333  0.3425273734746108
  0.5416666666666666  0.6280916219593994  0.6603713133436859
  0.5416666666666666  0.6280916219593994  0.8240388917157861
  0.2114249552927327  0.9583333333333334  0.5032962650284141
  0.6262209768686252  0.0416666666666667  0.4938050481532893
  0.2114249552927327  0.9583333333333334  0.3396286866563141
  0.6262209768686252  0.0416666666666667  0.6574726265253893
  0.6262209768686252  0.0416666666666667  0.8211402048974894
  0.2114249552927327  0.9583333333333334  0.1759611082842140
  0.6262209768686252  0.1250000000000000  0.1664698914090892
  0.6262209768686252  0.1250000000000000  0.3301374697811892
  0.2114249552927327  0.8749999999999999  0.8306314217726143
  0.6262209768686252  0.1250000000000000  0.4938050481532893
  0.6262209768686252  0.1250000000000000  0.6574726265253893
  0.2114249552927327  0.8749999999999999  0.6669638434005142
  0.6262209768686252  0.1250000000000000  0.8211402048974894
  0.2114249552927327  0.8749999999999999  0.5032962650284141
  0.6262209768686252  0.2083333333333333  0.1664698914090892
  0.6262209768686252  0.2083333333333333  0.3301374697811892
  0.2114249552927327  0.8749999999999999  0.3396286866563141
  0.6262209768686252  0.3749999999999999  0.1664698914090892
  0.2114249552927327  0.7916666666666665  0.3396286866563141
  0.6262209768686252  0.2916666666666666  0.8211402048974894
  0.2114249552927327  0.7916666666666665  0.5032962650284141
  0.6262209768686252  0.2916666666666666  0.6574726265253893
  0.6262209768686252  0.2916666666666666  0.4938050481532893
  0.6262209768686252  0.0416666666666667  0.3301374697811892
  0.2114249552927327  0.7916666666666665  0.6669638434005142
  0.6262209768686252  0.2916666666666666  0.1664698914090892
  0.2114249552927327  0.7916666666666665  0.8306314217726143
  0.6262209768686252  0.2083333333333333  0.8211402048974894
  0.6262209768686252  0.2083333333333333  0.6574726265253893
  0.2114249552927327  0.8749999999999999  0.1759611082842140
  0.6262209768686252  0.2083333333333333  0.4938050481532893
  0.6262209768686252  0.2916666666666666  0.3301374697811892
  0.4614249552927327  0.9583333333333334  0.1759611082842140
  0.6262209768686252  0.0416666666666667  0.1664698914090892
  0.5416666666666666  0.9614249552927328  0.8240388917157861
  0.2928876435352918  0.2083333333333333  0.1788597951025107
  0.5416666666666666  0.7114249552927326  0.1693685782273859
  0.5416666666666666  0.7114249552927326  0.3330361565994859
  0.2928876435352918  0.1250000000000000  0.8335301085909110
  0.5416666666666666  0.7114249552927326  0.4967037349715860
  0.2928876435352918  0.1250000000000000  0.6698625302188108
  0.5416666666666666  0.7114249552927326  0.6603713133436859
  0.5416666666666666  0.7114249552927326  0.8240388917157861
  0.2928876435352918  0.1250000000000000  0.5061949518467108
  0.5416666666666666  0.7947582886260659  0.1693685782273859
  0.2928876435352918  0.1250000000000000  0.3425273734746108
  0.5416666666666666  0.7947582886260659  0.3330361565994859
  0.5416666666666666  0.7947582886260659  0.4967037349715860
  0.2928876435352918  0.1250000000000000  0.1788597951025107
  0.5416666666666666  0.7947582886260659  0.6603713133436859
  0.5416666666666666  0.7947582886260659  0.8240388917157861
  0.2928876435352918  0.0416666666666667  0.8335301085909110
  0.2114249552927327  0.9583333333333334  0.8306314217726143
  0.5416666666666666  0.9614249552927328  0.6603713133436859
  0.5416666666666666  0.9614249552927328  0.4967037349715860
  0.5416666666666666  0.9614249552927328  0.3330361565994859
  0.2928876435352918  0.0416666666666667  0.1788597951025107
  0.5416666666666666  0.9614249552927328  0.1693685782273859
  0.2114249552927327  0.9583333333333334  0.6669638434005142
  0.2928876435352918  0.0416666666666667  0.3425273734746108
  0.5416666666666666  0.8780916219593994  0.6603713133436859
  0.2928876435352918  0.0416666666666667  0.5061949518467108
  0.5416666666666666  0.8780916219593994  0.4967037349715860
  0.2928876435352918  0.0416666666666667  0.6698625302188108
  0.5416666666666666  0.8780916219593994  0.3330361565994859
  0.5416666666666666  0.8780916219593994  0.1693685782273859
  0.5416666666666666  0.8780916219593994  0.8240388917157861
  0.6262209768686252  0.3749999999999999  0.3301374697811892
  0.2947582886260661  0.6250000000000000  0.3396286866563141
  0.2947582886260661  0.6250000000000000  0.5032962650284141
  0.3780916219593994  0.8749999999999999  0.3396286866563141
  0.3762209768686251  0.2083333333333333  0.8335301085909110
  0.3780916219593994  0.8749999999999999  0.5032962650284141
  0.3762209768686251  0.2083333333333333  0.6698625302188108
  0.3780916219593994  0.8749999999999999  0.6669638434005142
  0.3780916219593994  0.8749999999999999  0.8306314217726143
  0.3762209768686251  0.2083333333333333  0.5061949518467108
  0.3780916219593994  0.9583333333333334  0.1759611082842140
  0.3762209768686251  0.2083333333333333  0.3425273734746108
  0.3780916219593994  0.9583333333333334  0.3396286866563141
  0.3780916219593994  0.9583333333333334  0.5032962650284141
  0.3762209768686251  0.2083333333333333  0.1788597951025107
  0.3780916219593994  0.9583333333333334  0.6669638434005142
  0.3780916219593994  0.9583333333333334  0.8306314217726143
  0.3780916219593994  0.8749999999999999  0.1759611082842140
  0.3762209768686251  0.1250000000000000  0.8335301085909110
  0.4595543102019585  0.0416666666666667  0.3425273734746108
  0.3762209768686251  0.1250000000000000  0.6698625302188108
  0.4595543102019585  0.0416666666666667  0.5061949518467108
  0.3762209768686251  0.1250000000000000  0.5061949518467108
  0.4595543102019585  0.0416666666666667  0.6698625302188108
  0.4595543102019585  0.0416666666666667  0.8335301085909110
  0.3762209768686251  0.1250000000000000  0.3425273734746108
  0.4595543102019585  0.1250000000000000  0.1788597951025107
  0.3762209768686251  0.1250000000000000  0.1788597951025107
  0.4595543102019585  0.1250000000000000  0.3425273734746108
  0.4595543102019585  0.1250000000000000  0.5061949518467108
  0.4595543102019585  0.1250000000000000  0.6698625302188108
  0.3762209768686251  0.0416666666666667  0.8335301085909110
  0.4595543102019585  0.1250000000000000  0.8335301085909110
  0.4595543102019585  0.0416666666666667  0.1788597951025107
  0.3762209768686251  0.2916666666666666  0.1788597951025107
  0.3780916219593994  0.7916666666666665  0.8306314217726143
  0.3780916219593994  0.7916666666666665  0.6669638434005142
  0.3762209768686251  0.4583333333333334  0.8335301085909110
  0.3762209768686251  0.4583333333333334  0.5061949518467108
  0.3780916219593994  0.5416666666666666  0.1759611082842140
  0.3762209768686251  0.4583333333333334  0.3425273734746108
  0.3780916219593994  0.5416666666666666  0.3396286866563141
  0.3780916219593994  0.5416666666666666  0.5032962650284141
  0.3762209768686251  0.4583333333333334  0.1788597951025107
  0.3780916219593994  0.5416666666666666  0.6669638434005142
  0.3780916219593994  0.5416666666666666  0.8306314217726143
  0.3762209768686251  0.3749999999999999  0.8335301085909110
  0.3780916219593994  0.6250000000000000  0.1759611082842140
  0.3762209768686251  0.3749999999999999  0.6698625302188108
  0.3780916219593994  0.6250000000000000  0.3396286866563141
  0.3780916219593994  0.6250000000000000  0.5032962650284141
  0.3762209768686251  0.3749999999999999  0.5061949518467108
  0.3780916219593994  0.6250000000000000  0.6669638434005142
  0.3780916219593994  0.6250000000000000  0.8306314217726143
  0.3762209768686251  0.2916666666666666  0.3425273734746108
  0.3780916219593994  0.7916666666666665  0.5032962650284141
  0.3780916219593994  0.7916666666666665  0.3396286866563141
  0.3762209768686251  0.2916666666666666  0.5061949518467108
  0.3780916219593994  0.7916666666666665  0.1759611082842140
  0.3762209768686251  0.2916666666666666  0.6698625302188108
  0.3762209768686251  0.0416666666666667  0.6698625302188108
  0.3780916219593994  0.7083333333333333  0.8306314217726143
  0.3762209768686251  0.2916666666666666  0.8335301085909110
  0.3780916219593994  0.7083333333333333  0.5032962650284141
  0.3780916219593994  0.7083333333333333  0.3396286866563141
  0.3762209768686251  0.3749999999999999  0.1788597951025107
  0.3780916219593994  0.7083333333333333  0.1759611082842140
  0.3762209768686251  0.3749999999999999  0.3425273734746108
  0.3780916219593994  0.7083333333333333  0.6669638434005142
  0.4595543102019585  0.2083333333333333  0.1788597951025107
  0.4595543102019585  0.2083333333333333  0.3425273734746108
  0.3762209768686251  0.0416666666666667  0.5061949518467108
  0.4614249552927327  0.5416666666666666  0.8306314217726143
  0.2947582886260661  0.7916666666666665  0.6669638434005142
  0.4614249552927327  0.6250000000000000  0.1759611082842140
  0.4614249552927327  0.6250000000000000  0.3396286866563141
  0.2947582886260661  0.7916666666666665  0.5032962650284141
  0.4614249552927327  0.6250000000000000  0.5032962650284141
  0.4614249552927327  0.6250000000000000  0.6669638434005142
  0.2947582886260661  0.7916666666666665  0.3396286866563141
  0.4614249552927327  0.6250000000000000  0.8306314217726143
  0.2947582886260661  0.7916666666666665  0.1759611082842140
  0.4614249552927327  0.7083333333333333  0.1759611082842140
  0.4614249552927327  0.7083333333333333  0.3396286866563141
  0.2947582886260661  0.7083333333333333  0.8306314217726143
  0.4614249552927327  0.7083333333333333  0.5032962650284141
  0.4614249552927327  0.7083333333333333  0.6669638434005142
  0.2947582886260661  0.7083333333333333  0.6669638434005142
  0.4614249552927327  0.7083333333333333  0.8306314217726143
  0.4614249552927327  0.8749999999999999  0.6669638434005142
  0.4614249552927327  0.8749999999999999  0.5032962650284141
  0.2947582886260661  0.6250000000000000  0.6669638434005142
  0.4614249552927327  0.8749999999999999  0.3396286866563141
  0.2947582886260661  0.6250000000000000  0.8306314217726143
  0.4614249552927327  0.8749999999999999  0.1759611082842140
  0.2947582886260661  0.7916666666666665  0.8306314217726143
  0.4614249552927327  0.7916666666666665  0.8306314217726143
  0.4614249552927327  0.7916666666666665  0.6669638434005142
  0.4614249552927327  0.7916666666666665  0.5032962650284141
  0.2947582886260661  0.7083333333333333  0.3396286866563141
  0.4614249552927327  0.7916666666666665  0.3396286866563141
  0.4614249552927327  0.7916666666666665  0.1759611082842140
  0.2947582886260661  0.7083333333333333  0.5032962650284141
  0.2947582886260661  0.7083333333333333  0.1759611082842140
  0.4614249552927327  0.8749999999999999  0.8306314217726143
  0.4614249552927327  0.5416666666666666  0.6669638434005142
  0.2947582886260661  0.8749999999999999  0.1759611082842140
  0.4595543102019585  0.2083333333333333  0.5061949518467108
  0.3762209768686251  0.0416666666666667  0.3425273734746108
  0.4595543102019585  0.2083333333333333  0.6698625302188108
  0.4595543102019585  0.2083333333333333  0.8335301085909110
  0.3762209768686251  0.0416666666666667  0.1788597951025107
  0.4595543102019585  0.2916666666666666  0.1788597951025107
  0.4595543102019585  0.2916666666666666  0.3425273734746108
  0.2947582886260661  0.9583333333333334  0.8306314217726143
  0.4595543102019585  0.2916666666666666  0.5061949518467108
  0.4595543102019585  0.2916666666666666  0.6698625302188108
  0.2947582886260661  0.9583333333333334  0.6669638434005142
  0.4595543102019585  0.2916666666666666  0.8335301085909110
  0.2947582886260661  0.9583333333333334  0.5032962650284141
  0.4595543102019585  0.3749999999999999  0.1788597951025107
  0.4595543102019585  0.3749999999999999  0.3425273734746108
  0.2947582886260661  0.9583333333333334  0.3396286866563141
  0.4595543102019585  0.3749999999999999  0.5061949518467108
  0.4614249552927327  0.5416666666666666  0.3396286866563141
  0.4614249552927327  0.5416666666666666  0.1759611082842140
  0.2947582886260661  0.8749999999999999  0.3396286866563141
  0.4595543102019585  0.4583333333333334  0.8335301085909110
  0.2947582886260661  0.8749999999999999  0.5032962650284141
  0.4595543102019585  0.4583333333333334  0.6698625302188108
  0.4614249552927327  0.5416666666666666  0.5032962650284141
  0.4595543102019585  0.4583333333333334  0.5061949518467108
  0.4595543102019585  0.4583333333333334  0.3425273734746108
  0.4595543102019585  0.4583333333333334  0.1788597951025107
  0.2947582886260661  0.8749999999999999  0.8306314217726143
  0.4595543102019585  0.3749999999999999  0.8335301085909110
  0.4595543102019585  0.3749999999999999  0.6698625302188108
  0.2947582886260661  0.9583333333333334  0.1759611082842140
  0.2947582886260661  0.8749999999999999  0.6669638434005142
  0.1262209768686252  0.0416666666666667  0.3425273734746108
  0.2114249552927327  0.7916666666666665  0.1759611082842140
  0.6262209768686252  0.3749999999999999  0.6574726265253893
  0.1280916219593994  0.6250000000000000  0.8306314217726143
  0.7928876435352917  0.2083333333333333  0.8211402048974894
  0.1280916219593994  0.6250000000000000  0.6669638434005142
  0.7928876435352917  0.2916666666666666  0.1664698914090892
  0.7928876435352917  0.2916666666666666  0.3301374697811892
  0.1280916219593994  0.6250000000000000  0.5032962650284141
  0.7928876435352917  0.2916666666666666  0.4938050481532893
  0.1280916219593994  0.6250000000000000  0.3396286866563141
  0.7928876435352917  0.2916666666666666  0.6574726265253893
  0.7928876435352917  0.2916666666666666  0.8211402048974894
  0.1280916219593994  0.6250000000000000  0.1759611082842140
  0.7928876435352917  0.3749999999999999  0.1664698914090892
  0.7928876435352917  0.3749999999999999  0.3301374697811892
  0.1280916219593994  0.5416666666666666  0.8306314217726143
  0.7928876435352917  0.2083333333333333  0.6574726265253893
  0.7928876435352917  0.3749999999999999  0.4938050481532893
  0.1280916219593994  0.5416666666666666  0.6669638434005142
  0.7928876435352917  0.3749999999999999  0.8211402048974894
  0.1280916219593994  0.5416666666666666  0.5032962650284141
  0.7928876435352917  0.4583333333333334  0.1664698914090892
  0.7928876435352917  0.4583333333333334  0.3301374697811892
  0.1280916219593994  0.5416666666666666  0.3396286866563141
  0.7928876435352917  0.4583333333333334  0.4938050481532893
  0.1280916219593994  0.5416666666666666  0.1759611082842140
  0.7928876435352917  0.4583333333333334  0.6574726265253893
  0.7928876435352917  0.4583333333333334  0.8211402048974894
  0.1262209768686252  0.4583333333333334  0.8335301085909110
  0.7916666666666665  0.5447582886260660  0.1693685782273859
  0.7916666666666665  0.5447582886260660  0.3330361565994859
  0.1262209768686252  0.4583333333333334  0.6698625302188108
  0.7928876435352917  0.3749999999999999  0.6574726265253893
  0.7928876435352917  0.2083333333333333  0.4938050481532893
  0.7928876435352917  0.2083333333333333  0.3301374697811892
  0.1280916219593994  0.7083333333333333  0.1759611082842140
  0.7083333333333333  0.8780916219593994  0.3330361565994859
  0.7083333333333333  0.8780916219593994  0.4967037349715860
  0.1280916219593994  0.8749999999999999  0.3396286866563141
  0.7083333333333333  0.8780916219593994  0.6603713133436859
  0.7083333333333333  0.8780916219593994  0.8240388917157861
  0.1280916219593994  0.8749999999999999  0.1759611082842140
  0.7083333333333333  0.9614249552927328  0.1693685782273859
  0.7083333333333333  0.9614249552927328  0.3330361565994859
  0.1280916219593994  0.7916666666666665  0.8306314217726143
  0.7083333333333333  0.9614249552927328  0.4967037349715860
  0.1280916219593994  0.7916666666666665  0.6669638434005142
  0.7083333333333333  0.9614249552927328  0.6603713133436859
  0.7083333333333333  0.9614249552927328  0.8240388917157861
  0.1280916219593994  0.7916666666666665  0.5032962650284141
  0.7928876435352917  0.0416666666666667  0.1664698914090892
  0.1280916219593994  0.7916666666666665  0.3396286866563141
  0.7928876435352917  0.0416666666666667  0.3301374697811892
  0.7928876435352917  0.2083333333333333  0.1664698914090892
  0.1280916219593994  0.7083333333333333  0.3396286866563141
  0.7928876435352917  0.1250000000000000  0.8211402048974894
  0.7928876435352917  0.1250000000000000  0.6574726265253893
  0.1280916219593994  0.7083333333333333  0.5032962650284141
  0.7928876435352917  0.1250000000000000  0.4938050481532893
  0.7916666666666665  0.5447582886260660  0.4967037349715860
  0.1280916219593994  0.7083333333333333  0.6669638434005142
  0.7928876435352917  0.1250000000000000  0.1664698914090892
  0.1280916219593994  0.7083333333333333  0.8306314217726143
  0.7928876435352917  0.0416666666666667  0.8211402048974894
  0.7928876435352917  0.0416666666666667  0.6574726265253893
  0.1280916219593994  0.7916666666666665  0.1759611082842140
  0.7928876435352917  0.0416666666666667  0.4938050481532893
  0.7928876435352917  0.1250000000000000  0.3301374697811892
  0.7916666666666665  0.5447582886260660  0.6603713133436859
  0.1262209768686252  0.4583333333333334  0.5061949518467108
  0.7916666666666665  0.5447582886260660  0.8240388917157861
  0.1262209768686252  0.2083333333333333  0.6698625302188108
  0.7916666666666665  0.9614249552927328  0.4967037349715860
  0.7916666666666665  0.9614249552927328  0.6603713133436859
  0.1262209768686252  0.2083333333333333  0.5061949518467108
  0.7916666666666665  0.9614249552927328  0.8240388917157861
  0.1262209768686252  0.2083333333333333  0.3425273734746108
  0.8762209768686251  0.0416666666666667  0.1664698914090892
  0.8762209768686251  0.0416666666666667  0.3301374697811892
  0.1262209768686252  0.2083333333333333  0.1788597951025107
  0.8762209768686251  0.0416666666666667  0.4938050481532893
  0.8762209768686251  0.0416666666666667  0.6574726265253893
  0.1262209768686252  0.1250000000000000  0.8335301085909110
  0.8762209768686251  0.0416666666666667  0.8211402048974894
  0.8762209768686251  0.1250000000000000  0.1664698914090892
  0.1262209768686252  0.1250000000000000  0.6698625302188108
  0.8762209768686251  0.1250000000000000  0.3301374697811892
  0.1262209768686252  0.1250000000000000  0.5061949518467108
  0.1262209768686252  0.0416666666666667  0.5061949518467108
  0.8762209768686251  0.2916666666666666  0.1664698914090892
  0.8762209768686251  0.2083333333333333  0.8211402048974894
  0.1262209768686252  0.0416666666666667  0.6698625302188108
  0.8762209768686251  0.2083333333333333  0.6574726265253893
  0.1262209768686252  0.0416666666666667  0.8335301085909110
  0.7916666666666665  0.9614249552927328  0.3330361565994859
  0.8762209768686251  0.2083333333333333  0.4938050481532893
  0.8762209768686251  0.2083333333333333  0.1664698914090892
  0.1262209768686252  0.1250000000000000  0.1788597951025107
  0.8762209768686251  0.1250000000000000  0.8211402048974894
  0.1262209768686252  0.1250000000000000  0.3425273734746108
  0.8762209768686251  0.1250000000000000  0.6574726265253893
  0.8762209768686251  0.1250000000000000  0.4938050481532893
  0.8762209768686251  0.2083333333333333  0.3301374697811892
  0.1280916219593994  0.8749999999999999  0.5032962650284141
  0.1262209768686252  0.2083333333333333  0.8335301085909110
  0.7916666666666665  0.8780916219593994  0.8240388917157861
  0.1262209768686252  0.4583333333333334  0.3425273734746108
  0.7916666666666665  0.6280916219593994  0.1693685782273859
  0.7916666666666665  0.6280916219593994  0.3330361565994859
  0.1262209768686252  0.4583333333333334  0.1788597951025107
  0.7916666666666665  0.6280916219593994  0.4967037349715860
  0.7916666666666665  0.6280916219593994  0.6603713133436859
  0.1262209768686252  0.3749999999999999  0.8335301085909110
  0.7916666666666665  0.6280916219593994  0.8240388917157861
  0.1262209768686252  0.3749999999999999  0.6698625302188108
  0.7916666666666665  0.7114249552927326  0.1693685782273859
  0.7916666666666665  0.7114249552927326  0.3330361565994859
  0.1262209768686252  0.3749999999999999  0.5061949518467108
  0.7916666666666665  0.7114249552927326  0.4967037349715860
  0.7916666666666665  0.7114249552927326  0.6603713133436859
  0.1262209768686252  0.3749999999999999  0.3425273734746108
  0.7916666666666665  0.7114249552927326  0.8240388917157861
  0.1262209768686252  0.3749999999999999  0.1788597951025107
  0.1262209768686252  0.2916666666666666  0.1788597951025107
  0.7916666666666665  0.8780916219593994  0.6603713133436859
  0.7916666666666665  0.8780916219593994  0.4967037349715860
  0.1262209768686252  0.2916666666666666  0.3425273734746108
  0.7916666666666665  0.8780916219593994  0.3330361565994859
  0.7916666666666665  0.8780916219593994  0.1693685782273859
  0.7916666666666665  0.9614249552927328  0.1693685782273859
  0.1262209768686252  0.2916666666666666  0.5061949518467108
  0.1262209768686252  0.2916666666666666  0.6698625302188108
  0.7916666666666665  0.7947582886260659  0.6603713133436859
  0.7916666666666665  0.7947582886260659  0.4967037349715860
  0.1262209768686252  0.2916666666666666  0.8335301085909110
  0.7916666666666665  0.7947582886260659  0.3330361565994859
  0.7916666666666665  0.7947582886260659  0.1693685782273859
  0.7916666666666665  0.7947582886260659  0.8240388917157861
  0.6262209768686252  0.3749999999999999  0.4938050481532893
  0.7083333333333333  0.8780916219593994  0.1693685782273859
  0.7083333333333333  0.7947582886260659  0.8240388917157861
  0.6250000000000000  0.7947582886260659  0.1693685782273859
  0.6250000000000000  0.7947582886260659  0.3330361565994859
  0.2114249552927327  0.5416666666666666  0.1759611082842140
  0.6250000000000000  0.7947582886260659  0.4967037349715860
  0.6250000000000000  0.7947582886260659  0.6603713133436859
  0.2095543102019585  0.4583333333333334  0.8335301085909110
  0.6250000000000000  0.7947582886260659  0.8240388917157861
  0.6250000000000000  0.8780916219593994  0.1693685782273859
  0.2095543102019585  0.4583333333333334  0.6698625302188108
  0.6250000000000000  0.8780916219593994  0.3330361565994859
  0.2095543102019585  0.4583333333333334  0.5061949518467108
  0.6250000000000000  0.8780916219593994  0.4967037349715860
  0.6250000000000000  0.8780916219593994  0.6603713133436859
  0.2095543102019585  0.4583333333333334  0.3425273734746108
  0.2114249552927327  0.5416666666666666  0.3396286866563141
  0.6250000000000000  0.8780916219593994  0.8240388917157861
  0.6250000000000000  0.9614249552927328  0.1693685782273859
  0.6250000000000000  0.9614249552927328  0.3330361565994859
  0.6250000000000000  0.9614249552927328  0.4967037349715860
  0.2095543102019585  0.3749999999999999  0.8335301085909110
  0.6250000000000000  0.9614249552927328  0.6603713133436859
  0.2095543102019585  0.3749999999999999  0.6698625302188108
  0.6250000000000000  0.9614249552927328  0.8240388917157861
  0.7095543102019585  0.0416666666666667  0.1664698914090892
  0.2095543102019585  0.3749999999999999  0.5061949518467108
  0.7095543102019585  0.0416666666666667  0.3301374697811892
  0.2095543102019585  0.3749999999999999  0.3425273734746108
  0.7095543102019585  0.0416666666666667  0.4938050481532893
  0.7095543102019585  0.0416666666666667  0.6574726265253893
  0.2095543102019585  0.3749999999999999  0.1788597951025107
  0.2095543102019585  0.4583333333333334  0.1788597951025107
  0.6250000000000000  0.7114249552927326  0.8240388917157861
  0.2114249552927327  0.5416666666666666  0.5032962650284141
  0.6250000000000000  0.7114249552927326  0.6603713133436859
  0.2114249552927327  0.7083333333333333  0.8306314217726143
  0.6262209768686252  0.3749999999999999  0.8211402048974894
  0.2114249552927327  0.7083333333333333  0.6669638434005142
  0.6262209768686252  0.4583333333333334  0.1664698914090892
  0.6262209768686252  0.4583333333333334  0.3301374697811892
  0.2114249552927327  0.7083333333333333  0.5032962650284141
  0.6262209768686252  0.4583333333333334  0.4938050481532893
  0.6262209768686252  0.4583333333333334  0.6574726265253893
  0.2114249552927327  0.7083333333333333  0.3396286866563141
  0.6262209768686252  0.4583333333333334  0.8211402048974894
  0.2114249552927327  0.7083333333333333  0.1759611082842140
  0.6250000000000000  0.5447582886260660  0.1693685782273859
  0.6250000000000000  0.5447582886260660  0.3330361565994859
  0.2114249552927327  0.6250000000000000  0.8306314217726143
  0.6250000000000000  0.5447582886260660  0.4967037349715860
  0.6250000000000000  0.5447582886260660  0.6603713133436859
  0.2114249552927327  0.6250000000000000  0.6669638434005142
  0.6250000000000000  0.7114249552927326  0.4967037349715860
  0.2114249552927327  0.5416666666666666  0.6669638434005142
  0.6250000000000000  0.7114249552927326  0.3330361565994859
  0.2114249552927327  0.5416666666666666  0.8306314217726143
  0.6250000000000000  0.7114249552927326  0.1693685782273859
  0.6250000000000000  0.6280916219593994  0.8240388917157861
  0.7095543102019585  0.0416666666666667  0.8211402048974894
  0.2114249552927327  0.6250000000000000  0.1759611082842140
  0.6250000000000000  0.6280916219593994  0.4967037349715860
  0.2114249552927327  0.6250000000000000  0.3396286866563141
  0.6250000000000000  0.6280916219593994  0.3330361565994859
  0.6250000000000000  0.6280916219593994  0.1693685782273859
  0.2114249552927327  0.6250000000000000  0.5032962650284141
  0.6250000000000000  0.5447582886260660  0.8240388917157861
  0.6250000000000000  0.6280916219593994  0.6603713133436859
  0.7095543102019585  0.1250000000000000  0.1664698914090892
  0.2095543102019585  0.2916666666666666  0.8335301085909110
  0.7095543102019585  0.1250000000000000  0.3301374697811892
  0.7095543102019585  0.4583333333333334  0.8211402048974894
  0.7083333333333333  0.5447582886260660  0.1693685782273859
  0.2095543102019585  0.0416666666666667  0.8335301085909110
  0.7083333333333333  0.5447582886260660  0.3330361565994859
  0.7083333333333333  0.5447582886260660  0.4967037349715860
  0.2095543102019585  0.0416666666666667  0.6698625302188108
  0.7083333333333333  0.5447582886260660  0.6603713133436859
  0.7083333333333333  0.5447582886260660  0.8240388917157861
  0.2095543102019585  0.0416666666666667  0.5061949518467108
  0.7083333333333333  0.6280916219593994  0.1693685782273859
  0.2095543102019585  0.0416666666666667  0.3425273734746108
  0.7083333333333333  0.6280916219593994  0.3330361565994859
  0.7083333333333333  0.6280916219593994  0.4967037349715860
  0.2095543102019585  0.0416666666666667  0.1788597951025107
  0.7083333333333333  0.6280916219593994  0.6603713133436859
  0.7083333333333333  0.6280916219593994  0.8240388917157861
  0.1280916219593994  0.9583333333333334  0.8306314217726143
  0.7083333333333333  0.7947582886260659  0.6603713133436859
  0.1280916219593994  0.8749999999999999  0.8306314217726143
  0.7083333333333333  0.7947582886260659  0.4967037349715860
  0.7083333333333333  0.7947582886260659  0.3330361565994859
  0.1280916219593994  0.9583333333333334  0.1759611082842140
  0.7083333333333333  0.7947582886260659  0.1693685782273859
  0.2095543102019585  0.1250000000000000  0.1788597951025107
  0.1280916219593994  0.9583333333333334  0.3396286866563141
  0.7083333333333333  0.7114249552927326  0.6603713133436859
  0.1280916219593994  0.9583333333333334  0.5032962650284141
  0.7083333333333333  0.7114249552927326  0.4967037349715860
  0.7083333333333333  0.7114249552927326  0.3330361565994859
  0.1280916219593994  0.9583333333333334  0.6669638434005142
  0.7083333333333333  0.7114249552927326  0.1693685782273859
  0.7083333333333333  0.7114249552927326  0.8240388917157861
  0.1280916219593994  0.8749999999999999  0.6669638434005142
  0.7095543102019585  0.4583333333333334  0.6574726265253893
  0.7095543102019585  0.4583333333333334  0.4938050481532893
  0.7095543102019585  0.1250000000000000  0.4938050481532893
  0.2095543102019585  0.2916666666666666  0.6698625302188108
  0.7095543102019585  0.1250000000000000  0.6574726265253893
  0.2095543102019585  0.2916666666666666  0.5061949518467108
  0.7095543102019585  0.1250000000000000  0.8211402048974894
  0.7095543102019585  0.2083333333333333  0.1664698914090892
  0.2095543102019585  0.2916666666666666  0.3425273734746108
  0.7095543102019585  0.2083333333333333  0.3301374697811892
  0.2095543102019585  0.2916666666666666  0.1788597951025107
  0.7095543102019585  0.2083333333333333  0.4938050481532893
  0.7095543102019585  0.2083333333333333  0.6574726265253893
  0.2095543102019585  0.2083333333333333  0.8335301085909110
  0.7095543102019585  0.2916666666666666  0.1664698914090892
  0.2095543102019585  0.2083333333333333  0.6698625302188108
  0.7095543102019585  0.2916666666666666  0.3301374697811892
  0.7095543102019585  0.2916666666666666  0.4938050481532893
  0.2095543102019585  0.2083333333333333  0.5061949518467108
  0.7095543102019585  0.4583333333333334  0.3301374697811892
  0.2095543102019585  0.1250000000000000  0.5061949518467108
  0.7095543102019585  0.4583333333333334  0.1664698914090892
  0.2095543102019585  0.1250000000000000  0.6698625302188108
  0.7095543102019585  0.3749999999999999  0.8211402048974894
  0.7095543102019585  0.3749999999999999  0.6574726265253893
  0.2095543102019585  0.1250000000000000  0.3425273734746108
  0.2095543102019585  0.1250000000000000  0.8335301085909110
  0.7095543102019585  0.3749999999999999  0.3301374697811892
  0.2095543102019585  0.2083333333333333  0.1788597951025107
  0.7095543102019585  0.3749999999999999  0.1664698914090892
  0.7095543102019585  0.2916666666666666  0.8211402048974894
  0.2095543102019585  0.2083333333333333  0.3425273734746108
  0.7095543102019585  0.2916666666666666  0.6574726265253893
  0.7095543102019585  0.3749999999999999  0.4938050481532893
  0.7095543102019585  0.2083333333333333  0.8211402048974894
