%BLOCK LATTICE_CART
  ANG
      1.078400535751     0.000000000000    -7.733169872988
      0.000000000000     7.808000000000     0.000000000000
      8.224416319838     0.000000000000     1.146905487817
%ENDBLOCK LATTICE_CART

%BLOCK POSITIONS_FRAC
  Pb           0.000000000000     0.000000000000     0.000000000000
  Ti           0.250000000000     0.250000000000     0.268850000000
  O            0.250000000000     0.250000000000     0.058700000000
  O            0.250000000000     0.000000000000     0.308700000000
  O            0.000000000000     0.250000000000     0.308700000000
  Pb           0.000000000000     0.000000000000     0.500000000000
  Ti           0.250000000000     0.250000000000     0.768850000000
  O            0.250000000000     0.250000000000     0.558700000000
  O            0.250000000000     0.000000000000     0.808700000000
  O            0.000000000000     0.250000000000     0.808700000000
  Pb           0.000000000000     0.500000000000     0.000000000000
  Ti           0.250000000000     0.750000000000     0.268850000000
  O            0.250000000000     0.750000000000     0.058700000000
  O            0.250000000000     0.500000000000     0.308700000000
  O            0.000000000000     0.750000000000     0.308700000000
  Pb           0.000000000000     0.500000000000     0.500000000000
  Ti           0.250000000000     0.750000000000     0.768850000000
  O            0.250000000000     0.750000000000     0.558700000000
  O            0.250000000000     0.500000000000     0.808700000000
  O            0.000000000000     0.750000000000     0.808700000000
  Pb           0.500000000000     0.000000000000     0.000000000000
  Ti           0.750000000000     0.250000000000     0.268850000000
  O            0.750000000000     0.250000000000     0.058700000000
  O            0.750000000000     0.000000000000     0.308700000000
  O            0.500000000000     0.250000000000     0.308700000000
  Pb           0.500000000000     0.000000000000     0.500000000000
  Ti           0.750000000000     0.250000000000     0.768850000000
  O            0.750000000000     0.250000000000     0.558700000000
  O            0.750000000000     0.000000000000     0.808700000000
  O            0.500000000000     0.250000000000     0.808700000000
  Pb           0.500000000000     0.500000000000     0.000000000000
  Ti           0.750000000000     0.750000000000     0.268850000000
  O            0.750000000000     0.750000000000     0.058700000000
  O            0.750000000000     0.500000000000     0.308700000000
  O            0.500000000000     0.750000000000     0.308700000000
  Pb:exc       0.500000000000     0.500000000000     0.500000000000
  Ti           0.750000000000     0.750000000000     0.768850000000
  O            0.750000000000     0.750000000000     0.558700000000
  O            0.750000000000     0.500000000000     0.808700000000
  O            0.500000000000     0.750000000000     0.808700000000
%ENDBLOCK POSITIONS_FRAC

KPOINT_MP_GRID 4 4 4
