%BLOCK LATTICE_CART
  ANG
      7.808000000000     0.000000000000     0.000000000000
      0.000000000000     7.808000000000     0.000000000000
      0.000000000000     0.000000000000     8.304000000000
%ENDBLOCK LATTICE_CART

%BLOCK POSITIONS_FRAC
  Pb           0.000000000000     0.000000000000     0.000000000000
  Ti:exc       0.250000000000     0.250000000000     0.268850000000
  O            0.250000000000     0.250000000000     0.058700000000
  O            0.250000000000     0.000000000000     0.308700000000
  O            0.000000000000     0.250000000000     0.308700000000
  Pb           0.000000000000     0.000000000000     0.500000000000
  Ti           0.250000000000     0.250000000000     0.768850000000
  O            0.250000000000     0.250000000000     0.558700000000
  O            0.250000000000     0.000000000000     0.808700000000
  O            0.000000000000     0.250000000000     0.808700000000
  Pb           0.000000000000     0.500000000000     0.000000000000
  Ti           0.250000000000     0.750000000000     0.268850000000
  O            0.250000000000     0.750000000000     0.058700000000
  O            0.250000000000     0.500000000000     0.308700000000
  O            0.000000000000     0.750000000000     0.308700000000
  Pb           0.000000000000     0.500000000000     0.500000000000
  Ti           0.250000000000     0.750000000000     0.768850000000
  O            0.250000000000     0.750000000000     0.558700000000
  O            0.250000000000     0.500000000000     0.808700000000
  O            0.000000000000     0.750000000000     0.808700000000
  Pb           0.500000000000     0.000000000000     0.000000000000
  Ti           0.750000000000     0.250000000000     0.268850000000
  O            0.750000000000     0.250000000000     0.058700000000
  O            0.750000000000     0.000000000000     0.308700000000
  O            0.500000000000     0.250000000000     0.308700000000
  Pb           0.500000000000     0.000000000000     0.500000000000
  Ti           0.750000000000     0.250000000000     0.768850000000
  O            0.750000000000     0.250000000000     0.558700000000
  O            0.750000000000     0.000000000000     0.808700000000
  O            0.500000000000     0.250000000000     0.808700000000
  Pb           0.500000000000     0.500000000000     0.000000000000
  Ti           0.750000000000     0.750000000000     0.268850000000
  O            0.750000000000     0.750000000000     0.058700000000
  O            0.750000000000     0.500000000000     0.308700000000
  O            0.500000000000     0.750000000000     0.308700000000
  Pb           0.500000000000     0.500000000000     0.500000000000
  Ti           0.750000000000     0.750000000000     0.768850000000
  O            0.750000000000     0.750000000000     0.558700000000
  O            0.750000000000     0.500000000000     0.808700000000
  O            0.500000000000     0.750000000000     0.808700000000
%ENDBLOCK POSITIONS_FRAC

KPOINT_MP_GRID 4 4 4
SPECTRAL_KPOINTS_MP_GRID 4 4 4

%BLOCK SPECIES_POT
O 2|1.1|17|20|23|20:21(qc=8)
Pb 3|2.2|7|8|9|50U:60:51U:61:52
Ti 3|1.8|9|10|11|30U:40:31:32(qc=5.5)
Ti:exc 3|1.8|9|10|11|30U:40:31:32(qc=5.5){2p5}
%ENDBLOCK SPECIES_POT
