%BLOCK LATTICE_CART
  ANG
      7.808000000000     0.000000000000     0.000000000000
      0.000000000000     7.808000000000     0.000000000000
      0.000000000000     0.000000000000     8.304000000000
%ENDBLOCK LATTICE_CART

%BLOCK POSITIONS_FRAC
  Pb           0.000000000000     0.000000000000     0.000000000000
  Ti           0.250000000000     0.250000000000     0.254712500000
  O            0.250000000000     0.250000000000     0.014675000000
  O            0.250000000000     0.000000000000     0.264675000000
  O            0.000000000000     0.250000000000     0.264675000000
  Pb           0.000000000000     0.000000000000     0.500000000000
  Ti           0.250000000000     0.250000000000     0.754712500000
  O            0.250000000000     0.250000000000     0.514675000000
  O            0.250000000000     0.000000000000     0.764675000000
  O            0.000000000000     0.250000000000     0.764675000000
  Pb           0.000000000000     0.500000000000     0.000000000000
  Ti           0.250000000000     0.750000000000     0.254712500000
  O            0.250000000000     0.750000000000     0.014675000000
  O            0.250000000000     0.500000000000     0.264675000000
  O            0.000000000000     0.750000000000     0.264675000000
  Pb           0.000000000000     0.500000000000     0.500000000000
  Ti           0.250000000000     0.750000000000     0.754712500000
  O            0.250000000000     0.750000000000     0.514675000000
  O            0.250000000000     0.500000000000     0.764675000000
  O            0.000000000000     0.750000000000     0.764675000000
  Pb           0.500000000000     0.000000000000     0.000000000000
  Ti           0.750000000000     0.250000000000     0.254712500000
  O            0.750000000000     0.250000000000     0.014675000000
  O            0.750000000000     0.000000000000     0.264675000000
  O            0.500000000000     0.250000000000     0.264675000000
  Pb           0.500000000000     0.000000000000     0.500000000000
  Ti           0.750000000000     0.250000000000     0.754712500000
  O            0.750000000000     0.250000000000     0.514675000000
  O            0.750000000000     0.000000000000     0.764675000000
  O            0.500000000000     0.250000000000     0.764675000000
  Pb           0.500000000000     0.500000000000     0.000000000000
  Ti           0.750000000000     0.750000000000     0.254712500000
  O            0.750000000000     0.750000000000     0.014675000000
  O            0.750000000000     0.500000000000     0.264675000000
  O            0.500000000000     0.750000000000     0.264675000000
  Pb:exc       0.500000000000     0.500000000000     0.500000000000
  Ti           0.750000000000     0.750000000000     0.754712500000
  O            0.750000000000     0.750000000000     0.514675000000
  O            0.750000000000     0.500000000000     0.764675000000
  O            0.500000000000     0.750000000000     0.764675000000
%ENDBLOCK POSITIONS_FRAC

KPOINT_MP_GRID 4 4 4
