%BLOCK LATTICE_CART
  ANG
      9.186000000000     0.000000000000     0.000000000000
      0.000000000000     9.186000000000     0.000000000000
      0.000000000000     0.000000000000     5.918000000000
%ENDBLOCK LATTICE_CART

%BLOCK POSITIONS_FRAC
  Ti           0.000000000000     0.000000000000     0.000000000000
  Ti           0.250000000000     0.250000000000     0.250000000000
  O            0.152500000000     0.152500000000     0.000000000000
  O            0.347500000000     0.347500000000     0.000000000000
  O            0.097500000000     0.402500000000     0.250000000000
  O            0.402500000000     0.097500000000     0.250000000000
  Ti           0.000000000000     0.000000000000     0.500000000000
  Ti           0.250000000000     0.250000000000     0.750000000000
  O            0.152500000000     0.152500000000     0.500000000000
  O            0.347500000000     0.347500000000     0.500000000000
  O            0.097500000000     0.402500000000     0.750000000000
  O            0.402500000000     0.097500000000     0.750000000000
  Ti           0.000000000000     0.500000000000     0.000000000000
  Ti           0.250000000000     0.750000000000     0.250000000000
  O            0.152500000000     0.652500000000     0.000000000000
  O            0.347500000000     0.847500000000     0.000000000000
  O            0.097500000000     0.902500000000     0.250000000000
  O            0.402500000000     0.597500000000     0.250000000000
  Ti           0.000000000000     0.500000000000     0.500000000000
  Ti           0.250000000000     0.750000000000     0.750000000000
  O            0.152500000000     0.652500000000     0.500000000000
  O            0.347500000000     0.847500000000     0.500000000000
  O            0.097500000000     0.902500000000     0.750000000000
  O            0.402500000000     0.597500000000     0.750000000000
  Ti           0.500000000000     0.000000000000     0.000000000000
  Ti           0.750000000000     0.250000000000     0.250000000000
  O            0.652500000000     0.152500000000     0.000000000000
  O            0.847500000000     0.347500000000     0.000000000000
  O            0.597500000000     0.402500000000     0.250000000000
  O            0.902500000000     0.097500000000     0.250000000000
  Ti           0.500000000000     0.000000000000     0.500000000000
  Ti           0.750000000000     0.250000000000     0.750000000000
  O            0.652500000000     0.152500000000     0.500000000000
  O            0.847500000000     0.347500000000     0.500000000000
  O            0.597500000000     0.402500000000     0.750000000000
  O            0.902500000000     0.097500000000     0.750000000000
  Ti           0.500000000000     0.500000000000     0.000000000000
  Ti           0.750000000000     0.750000000000     0.250000000000
  O            0.652500000000     0.652500000000     0.000000000000
  O            0.847500000000     0.847500000000     0.000000000000
  O            0.597500000000     0.902500000000     0.250000000000
  O            0.902500000000     0.597500000000     0.250000000000
  Ti:exc       0.500000000000     0.500000000000     0.500000000000
  Ti           0.750000000000     0.750000000000     0.750000000000
  O            0.652500000000     0.652500000000     0.500000000000
  O            0.847500000000     0.847500000000     0.500000000000
  O            0.597500000000     0.902500000000     0.750000000000
  O            0.902500000000     0.597500000000     0.750000000000
%ENDBLOCK POSITIONS_FRAC

KPOINT_MP_GRID 4 4 4
