%BLOCK LATTICE_CART
  ANG
      9.186000000000     0.000000000000     0.000000000000
      0.000000000000     9.186000000000     0.000000000000
      0.000000000000     0.000000000000     5.918000000000
%ENDBLOCK LATTICE_CART

%BLOCK POSITIONS_FRAC
  Ti           0.000000000000     0.000000000000     0.000000000000
  Ti           0.250000000000     0.250000000000     0.250000000000
  O            0.152500000000     0.152500000000     0.000000000000
  O            0.347500000000     0.347500000000     0.000000000000
  O            0.097500000000     0.402500000000     0.250000000000
  O            0.402500000000     0.097500000000     0.250000000000
  Ti           0.000000000000     0.000000000000     0.500000000000
  Ti           0.250000000000     0.250000000000     0.750000000000
  O            0.152500000000     0.152500000000     0.500000000000
  O            0.347500000000     0.347500000000     0.500000000000
  O            0.097500000000     0.402500000000     0.750000000000
  O            0.402500000000     0.097500000000     0.750000000000
  Ti           0.000000000000     0.500000000000     0.000000000000
  Ti           0.250000000000     0.750000000000     0.250000000000
  O            0.152500000000     0.652500000000     0.000000000000
  O            0.347500000000     0.847500000000     0.000000000000
  O            0.097500000000     0.902500000000     0.250000000000
  O:exc        0.402500000000     0.597500000000     0.250000000000
  Ti           0.000000000000     0.500000000000     0.500000000000
  Ti           0.250000000000     0.750000000000     0.750000000000
  O            0.152500000000     0.652500000000     0.500000000000
  O            0.347500000000     0.847500000000     0.500000000000
  O            0.097500000000     0.902500000000     0.750000000000
  O            0.402500000000     0.597500000000     0.750000000000
  Ti           0.500000000000     0.000000000000     0.000000000000
  Ti           0.750000000000     0.250000000000     0.250000000000
  O            0.652500000000     0.152500000000     0.000000000000
  O            0.847500000000     0.347500000000     0.000000000000
  O            0.597500000000     0.402500000000     0.250000000000
  O            0.902500000000     0.097500000000     0.250000000000
  Ti           0.500000000000     0.000000000000     0.500000000000
  Ti           0.750000000000     0.250000000000     0.750000000000
  O            0.652500000000     0.152500000000     0.500000000000
  O            0.847500000000     0.347500000000     0.500000000000
  O            0.597500000000     0.402500000000     0.750000000000
  O            0.902500000000     0.097500000000     0.750000000000
  Ti           0.500000000000     0.500000000000     0.000000000000
  Ti           0.750000000000     0.750000000000     0.250000000000
  O            0.652500000000     0.652500000000     0.000000000000
  O            0.847500000000     0.847500000000     0.000000000000
  O            0.597500000000     0.902500000000     0.250000000000
  O            0.902500000000     0.597500000000     0.250000000000
  Ti           0.500000000000     0.500000000000     0.500000000000
  Ti           0.750000000000     0.750000000000     0.750000000000
  O            0.652500000000     0.652500000000     0.500000000000
  O            0.847500000000     0.847500000000     0.500000000000
  O            0.597500000000     0.902500000000     0.750000000000
  O            0.902500000000     0.597500000000     0.750000000000
%ENDBLOCK POSITIONS_FRAC

KPOINT_MP_GRID 4 4 4
SPECTRAL_KPOINTS_MP_GRID 4 4 4

%BLOCK SPECIES_POT
O 2|1.1|17|20|23|20:21(qc=8)
Ti 3|1.8|9|10|11|30U:40:31:32(qc=5.5)
O:exc 2|1.1|17|20|23|20:21(qc=8){1s1}
%ENDBLOCK SPECIES_POT
