%BLOCK LATTICE_CART
  ANG
      0.539200267876     0.000000000000    -3.866584936494
      0.000000000000     3.904000000000     0.000000000000
      4.112208159919     0.000000000000     0.573452743909
%ENDBLOCK LATTICE_CART

%BLOCK POSITIONS_FRAC
  Pb           0.000000000000     0.000000000000     0.000000000000
  Ti           0.500000000000     0.500000000000     0.537700000000
  O            0.500000000000     0.500000000000     0.117400000000
  O            0.500000000000     0.000000000000     0.617400000000
  O            0.000000000000     0.500000000000     0.617400000000
%ENDBLOCK POSITIONS_FRAC

KPOINT_MP_GRID 8 8 8
SYMMETRY_GENERATE
