%BLOCK LATTICE_CART
  ANG
      3.904000000000     0.000000000000     0.000000000000
      0.000000000000     3.904000000000     0.000000000000
      0.000000000000     0.000000000000     4.152000000000
%ENDBLOCK LATTICE_CART

%BLOCK POSITIONS_FRAC
  Pb           0.000000000000     0.000000000000     0.000000000000
  Ti           0.500000000000     0.500000000000     0.518850000000
  O            0.500000000000     0.500000000000     0.058700000000
  O            0.500000000000     0.000000000000     0.558700000000
  O            0.000000000000     0.500000000000     0.558700000000
%ENDBLOCK POSITIONS_FRAC

KPOINT_MP_GRID 8 8 8
SYMMETRY_GENERATE
