%BLOCK LATTICE_CART
  ANG
      4.593000000000     0.000000000000     0.000000000000
      0.000000000000     4.593000000000     0.000000000000
      0.000000000000     0.000000000000     2.959000000000
%ENDBLOCK LATTICE_CART

%BLOCK POSITIONS_FRAC
  Ti           0.000000000000     0.000000000000     0.000000000000
  Ti           0.500000000000     0.500000000000     0.500000000000
  O            0.305000000000     0.305000000000     0.000000000000
  O            0.695000000000     0.695000000000     0.000000000000
  O            0.195000000000     0.805000000000     0.500000000000
  O            0.805000000000     0.195000000000     0.500000000000
%ENDBLOCK POSITIONS_FRAC

KPOINT_MP_GRID 8 8 8
SYMMETRY_GENERATE
